finalLLZO__19__18__19__16__19__1__19__23
   1.00000000000000     
    13.0219330000000006    0.0000000000000000    0.0000000000000000
     0.0000000000000000   13.0219330000000006    0.0000000000000000
     0.0000000000000000    0.0000000000000000   13.0219330000000006
   La   Li   O    r 
    24    56    95    16
Direct
  0.9998046265745302  0.2457920969580485  0.1293247090742682
  0.9959914978163908  0.2470022200026989  0.6285609859812666
  0.9984711323744619  0.7480677234057538  0.3829402019725094
  0.9982535386910243  0.7467755440167352  0.8690506813700480
  0.1233629140978110  0.9991921712541583  0.2502477763732713
  0.1291726623803839  0.4939573694294026  0.7496897041103736
  0.2497586014537987  0.1151992982257610  0.0043601789088044
  0.2506232523036047  0.3696972772610820  0.4999328547220117
  0.2474675117377458  0.6285110944454573  0.0016411427467631
  0.2450653057561638  0.8729120590860475  0.5033548542002961
  0.3761823473398991  0.9962903301103339  0.7528745538476187
  0.3662936989920951  0.4990045512387624  0.2521112820670908
  0.4962938828369587  0.2447796849369297  0.3691231764860774
  0.4960315582748080  0.2466921782219345  0.8840840310122928
  0.4965164198504581  0.7491742120763263  0.1341508356422239
  0.4989072737284346  0.7466632546889542  0.6197462669010392
  0.6257464818866865  0.9962071122771405  0.2509392804724939
  0.6158721441887209  0.4965824384746256  0.7519660917213784
  0.7508208712172646  0.1306640873771556  0.4972229759732798
  0.7477464028296197  0.3772900290057493  0.0031570956500460
  0.7484983691076366  0.6149387788967005  0.5006495511827040
  0.7481031611177187  0.8655208398580427  0.0016666400638314
  0.8664950736347521  0.9978271475777163  0.7504169230892614
  0.8817457622446838  0.4912458858311979  0.2538601591757370
  0.9988769048994399  0.2423763115294548  0.8769217545796550
  0.0006237267717140  0.7498809306712246  0.6278435120555486
  0.0862367185173767  0.0743091432502681  0.7949904814051649
  0.1181792099931158  0.4790740194349752  0.2620751405556589
  0.0819667673059570  0.9145916129856957  0.6863409469196995
  0.1478030190004063  0.1718648108258733  0.4300108517543393
  0.1578892190235663  0.3228583697965917  0.9389702863510010
  0.0681910009553235  0.6468190784070984  0.1781421045104281
  0.1560381219468070  0.6664742149835021  0.5678465134912258
  0.0844418971065863  0.8111188463576440  0.0766444423194983
  0.1787827686419732  0.5735691290369402  0.4049142450087047
  0.1762389946926675  0.9222186626562490  0.8580471436847787
  0.1832715141871120  0.0752679132774929  0.5984999687164461
  0.1791921550522275  0.4261100349513285  0.0933167746674499
  0.3371723534407138  0.6719208259578267  0.4349785403333257
  0.2587051051515559  0.8750846463137094  0.0209906122697490
  0.3190141400947226  0.5728259969681133  0.5918553823399080
  0.3128444661768981  0.0702994152250369  0.4072481946364590
  0.3143654670846132  0.4242277303340245  0.9086709164150335
  0.3587548371360256  0.1711492356822006  0.5709509285816807
  0.3380075403907270  0.3273909784060010  0.0684718775010609
  0.3787244758177621  0.0218085667483976  0.2216153757158921
  0.3748429958727968  0.4940309306785124  0.7494096839383673
  0.5013287401135003  0.7439230692154695  0.3782007983507754
  0.4093251557597455  0.8097325702674496  0.9239131425925393
  0.4884077110210114  0.2313532144090900  0.1302094709107706
  0.4358887913164011  0.3289980434974424  0.6686588057637834
  0.4327888456508902  0.6517734205253447  0.8267243458427203
  0.4157711889455626  0.8938425979532880  0.3303927573025476
  0.5473654577445828  0.1651980456974655  0.6664804943078266
  0.5693965710073599  0.3960229375009163  0.1808634735833579
  0.5650654484049937  0.8403916281469321  0.8264346595141063
  0.6558623252568339  0.1702992096205023  0.0684230868688900
  0.6031943553334145  0.3189139814953634  0.5732964994256662
  0.6208015022236708  0.9997614751827726  0.7496614849495131
  0.5763892743717420  0.5866510982370841  0.3149907719198666
  0.5880499254904379  0.6833231147323744  0.9264409512748060
  0.6582505576922557  0.8214083926579576  0.4355132614720816
  0.6733043594019250  0.5583469508267314  0.1606760812727472
  0.6837341937176831  0.9221272940150200  0.5920961267575322
  0.6772494119162289  0.0719477815548757  0.9100450340610990
  0.6701266191641366  0.4287164113548911  0.3372195715753605
  0.7654958529589209  0.3679921626643861  0.4901253609851608
  0.8146796826647318  0.9196049639083412  0.4086101803024604
  0.7494348334678378  0.6221827550522576  0.0015487342026859
  0.8140311108536977  0.0687861170062618  0.0921237557169974
  0.8198925360912668  0.4297324040729649  0.6598822611522053
  0.8351125645408430  0.1709917005770407  0.9380520401720815
  0.9843709856378950  0.2536807112222661  0.3733115768784216
  0.8807046344144780  0.0159932390090844  0.2615554174399648
  0.8241678625336419  0.5629344873277660  0.8412196289524516
  0.9112368467496168  0.6842150009820642  0.0806575836370698
  0.8406187200567601  0.8219942565461906  0.5673383760197694
  0.9194733717971957  0.4027227675477434  0.8183298397877863
  0.9222164167604490  0.5875053079335188  0.6833806071530759
  0.9290219894979757  0.8504170003671021  0.1767600342551319
  0.0332789876137056  0.0513035737936960  0.6529284855338275
  0.0355727561117263  0.4472686454246428  0.1451913159133156
  0.0338590609172726  0.5543526237242631  0.3566883033989114
  0.0290154299066288  0.9434288654868510  0.8444145339479405
  0.0543598266020382  0.1439601428362138  0.9687560166342379
  0.0501708143450585  0.6512345241869113  0.0298596466875338
  0.0550183425910689  0.8530111317422566  0.5402420920539015
  0.0990947540683180  0.1910317337258789  0.2847694281116304
  0.1031348037452702  0.3030385848549599  0.7891328916341109
  0.1039209083799264  0.6883596009466260  0.7144963293195161
  0.0961481334667198  0.8009541386147134  0.2215713507047923
  0.1478393741445032  0.0299711038273358  0.4515593280656205
  0.1503543196964046  0.4684948347237210  0.9479491213293016
  0.1505187728831530  0.5238183346638721  0.5513383191774182
  0.1427254343753006  0.9575405282171729  0.0499458905376997
  0.1964049299264161  0.2160149935063629  0.6051976714265948
  0.1928214603940361  0.2824703653077165  0.0993756368172427
  0.1935164940844345  0.7173766509002206  0.4057243175587288
  0.1924610704001992  0.7791873038721135  0.8978269048283778
  0.2268138358908729  0.0948162582552570  0.8108751755375678
  0.2261801349453165  0.3980434188472728  0.3107094862365898
  0.2101204465521676  0.6006097978302734  0.2018710006228801
  0.2235648656434179  0.8952937610322849  0.7038061492110046
  0.2662352694620225  0.1003613186210899  0.1911970345940048
  0.2872973255350857  0.3916476138275371  0.6964902279922853
  0.2858889968760678  0.5973607704833483  0.8078078445593064
  0.2736599022889692  0.9000352991977607  0.3121988296606233
  0.3010245114697128  0.2131954715218711  0.3990846529273142
  0.3017456590216057  0.2787248373608406  0.9061634713120554
  0.2998963984985679  0.7145569462655317  0.5980205459781232
  0.3063399033978200  0.7700254178483519  0.1052968595339223
  0.3493909131596240  0.0278583423350796  0.5540542306137226
  0.3442313251200346  0.4713228578401782  0.0526673755947797
  0.3486825654050421  0.5294306093905448  0.4513868426078176
  0.3534339904231274  0.9546159913443049  0.9441654723621298
  0.3994389950125381  0.1910452446453164  0.7169859413434807
  0.3936968385761332  0.3055680101144560  0.2129378681903020
  0.3934959596467564  0.6960589766925764  0.2914414048826686
  0.4033927448441119  0.7938061978642921  0.7795553814719511
  0.4400681551638002  0.1414440023412453  0.0280958385562329
  0.4512510908093788  0.3451693331838257  0.5264626384521236
  0.4473930247560745  0.6510979253957245  0.9716006654303939
  0.4451710116523060  0.8468124046887127  0.4683678342099000
  0.4601449561304847  0.0414253190502549  0.3514220492497415
  0.4626509107767944  0.4452783260849458  0.8556968017700726
  0.4637573361855516  0.5530460676293316  0.6469363654427838
  0.4759607858600816  0.9363627208130083  0.1536927598604549
  0.5337509331857078  0.0493652207336552  0.8559103993732293
  0.5273455492371824  0.4463007105603296  0.3471548718581516
  0.5275019127786393  0.5494276245006873  0.1545650797440885
  0.5340868400995973  0.9397653058814939  0.6480360553742983
  0.5529154773300036  0.1479796185437507  0.5232905614020424
  0.5495454361678895  0.3499612397127905  0.0360042211041929
  0.5583468714477249  0.6423468647134811  0.4648548310796983
  0.5520343773424230  0.8418028472054147  0.9712102963913551
  0.6015219170559689  0.1915386360596685  0.2134355501229095
  0.5904047212068235  0.3000566800213349  0.7207957855912710
  0.5954515659673447  0.6934250186646196  0.7807071382067079
  0.6046842359498399  0.7996677552168734  0.2898399682806883
  0.6511697725678331  0.0251855092419220  0.0523699583533386
  0.6475455464791295  0.4617125117034746  0.5566920042965791
  0.6446310231014820  0.5332575326774105  0.9473993140737349
  0.6512564132898788  0.9659199767542290  0.4498854403222339
  0.6909386589424216  0.2175409593016582  0.9055665872355760
  0.6900475425609756  0.2860968749759607  0.3938517212644399
  0.6944295726898417  0.7106232753939992  0.1053224551589693
  0.6951203122156642  0.7761027113942447  0.5982105415838888
  0.7114557659810359  0.1000414300232748  0.6950076519424897
  0.7152803045853986  0.3986697841068860  0.1940680200627156
  0.7205397674140173  0.5918877319251408  0.3008193671333288
  0.7114989978039077  0.8925788430426351  0.8059368379355192
  0.7728966826693906  0.0993083986597938  0.3096896820401440
  0.7735472195823760  0.3997275477103344  0.8046497087026552
  0.7764297821959758  0.5929558657506533  0.6995242725542354
  0.7838258288120343  0.8933298041760480  0.1952075325647229
  0.7984570601081344  0.2133069066947115  0.0959418851155434
  0.7946893356428788  0.2850422695432968  0.6073340184938232
  0.8047371252290318  0.7097507824253029  0.8954545864396266
  0.8009570248307156  0.7746288304307924  0.4057110564567665
  0.8446936326955381  0.0252704778531836  0.9465404303377198
  0.8512612105656814  0.4725160282443923  0.4435741019919490
  0.8520512598774417  0.5336285114950812  0.0559639643781296
  0.8452161841518517  0.9677826842759814  0.5536189841710737
  0.8888974667793832  0.1921947819860534  0.7893549478674942
  0.8963255523338844  0.3059007194987018  0.2675145540568167
  0.9036108590999845  0.6974817379260330  0.2246337841803623
  0.8925343326932236  0.8029672523447857  0.7144125120468559
  0.9446077968296578  0.1504698593460887  0.4818214653349315
  0.9405594707010181  0.3517100754891942  0.9651020150225307
  0.9447786936156604  0.6455099517473357  0.5413456847831242
  0.9443303475447067  0.8436157485987437  0.0283342557121671
  0.9627766737693904  0.0486928343663422  0.1447749461799361
  0.9664843244613763  0.4444625467828160  0.6529336673772121
  0.9691021176421302  0.5489916246001130  0.8459821825481271
  0.9622680935912200  0.9385891005411438  0.3568579245834655
  0.9983083153771659  0.9981592207928145  0.9971006673266771
  0.9964133377214992  0.0019278020497211  0.5005278371829789
  0.9981234517173618  0.4981118527468738  0.9990539519002866
  0.9969578636943552  0.4951128921702264  0.5001077045156492
  0.2450081786302079  0.2490357387138289  0.2506485352274268
  0.2485613104344253  0.2444863590604029  0.7540598855464680
  0.2465511114024110  0.7516617295252246  0.2513914318438779
  0.2507440797240008  0.7451197006213164  0.7508930634652415
  0.4969761141070066  0.9941908785651208  0.0052383447700990
  0.5012073069151342  0.9978345378278703  0.5014613638570751
  0.4970400806329707  0.4996322488993030  0.0036075357466459
  0.4999186870087584  0.4950585238854472  0.4986440038768478
  0.7508076902241356  0.2457107666484504  0.2499200991805210
  0.7425053356699536  0.2462338135430500  0.7526008931304347
  0.7514213418276796  0.7445254984967349  0.2519225321963603
  0.7462965320099428  0.7452673598608399  0.7493236137357755
 
  0.00000000E+00  0.00000000E+00  0.00000000E+00
  0.00000000E+00  0.00000000E+00  0.00000000E+00
  0.00000000E+00  0.00000000E+00  0.00000000E+00
  0.00000000E+00  0.00000000E+00  0.00000000E+00
  0.00000000E+00  0.00000000E+00  0.00000000E+00
  0.00000000E+00  0.00000000E+00  0.00000000E+00
  0.00000000E+00  0.00000000E+00  0.00000000E+00
  0.00000000E+00  0.00000000E+00  0.00000000E+00
  0.00000000E+00  0.00000000E+00  0.00000000E+00
  0.00000000E+00  0.00000000E+00  0.00000000E+00
  0.00000000E+00  0.00000000E+00  0.00000000E+00
  0.00000000E+00  0.00000000E+00  0.00000000E+00
  0.00000000E+00  0.00000000E+00  0.00000000E+00
  0.00000000E+00  0.00000000E+00  0.00000000E+00
  0.00000000E+00  0.00000000E+00  0.00000000E+00
  0.00000000E+00  0.00000000E+00  0.00000000E+00
  0.00000000E+00  0.00000000E+00  0.00000000E+00
  0.00000000E+00  0.00000000E+00  0.00000000E+00
  0.00000000E+00  0.00000000E+00  0.00000000E+00
  0.00000000E+00  0.00000000E+00  0.00000000E+00
  0.00000000E+00  0.00000000E+00  0.00000000E+00
  0.00000000E+00  0.00000000E+00  0.00000000E+00
  0.00000000E+00  0.00000000E+00  0.00000000E+00
  0.00000000E+00  0.00000000E+00  0.00000000E+00
  0.00000000E+00  0.00000000E+00  0.00000000E+00
  0.00000000E+00  0.00000000E+00  0.00000000E+00
  0.00000000E+00  0.00000000E+00  0.00000000E+00
  0.00000000E+00  0.00000000E+00  0.00000000E+00
  0.00000000E+00  0.00000000E+00  0.00000000E+00
  0.00000000E+00  0.00000000E+00  0.00000000E+00
  0.00000000E+00  0.00000000E+00  0.00000000E+00
  0.00000000E+00  0.00000000E+00  0.00000000E+00
  0.00000000E+00  0.00000000E+00  0.00000000E+00
  0.00000000E+00  0.00000000E+00  0.00000000E+00
  0.00000000E+00  0.00000000E+00  0.00000000E+00
  0.00000000E+00  0.00000000E+00  0.00000000E+00
  0.00000000E+00  0.00000000E+00  0.00000000E+00
  0.00000000E+00  0.00000000E+00  0.00000000E+00
  0.00000000E+00  0.00000000E+00  0.00000000E+00
  0.00000000E+00  0.00000000E+00  0.00000000E+00
  0.00000000E+00  0.00000000E+00  0.00000000E+00
  0.00000000E+00  0.00000000E+00  0.00000000E+00
  0.00000000E+00  0.00000000E+00  0.00000000E+00
  0.00000000E+00  0.00000000E+00  0.00000000E+00
  0.00000000E+00  0.00000000E+00  0.00000000E+00
  0.00000000E+00  0.00000000E+00  0.00000000E+00
  0.00000000E+00  0.00000000E+00  0.00000000E+00
  0.00000000E+00  0.00000000E+00  0.00000000E+00
  0.00000000E+00  0.00000000E+00  0.00000000E+00
  0.00000000E+00  0.00000000E+00  0.00000000E+00
  0.00000000E+00  0.00000000E+00  0.00000000E+00
  0.00000000E+00  0.00000000E+00  0.00000000E+00
  0.00000000E+00  0.00000000E+00  0.00000000E+00
  0.00000000E+00  0.00000000E+00  0.00000000E+00
  0.00000000E+00  0.00000000E+00  0.00000000E+00
  0.00000000E+00  0.00000000E+00  0.00000000E+00
  0.00000000E+00  0.00000000E+00  0.00000000E+00
  0.00000000E+00  0.00000000E+00  0.00000000E+00
  0.00000000E+00  0.00000000E+00  0.00000000E+00
  0.00000000E+00  0.00000000E+00  0.00000000E+00
  0.00000000E+00  0.00000000E+00  0.00000000E+00
  0.00000000E+00  0.00000000E+00  0.00000000E+00
  0.00000000E+00  0.00000000E+00  0.00000000E+00
  0.00000000E+00  0.00000000E+00  0.00000000E+00
  0.00000000E+00  0.00000000E+00  0.00000000E+00
  0.00000000E+00  0.00000000E+00  0.00000000E+00
  0.00000000E+00  0.00000000E+00  0.00000000E+00
  0.00000000E+00  0.00000000E+00  0.00000000E+00
  0.00000000E+00  0.00000000E+00  0.00000000E+00
  0.00000000E+00  0.00000000E+00  0.00000000E+00
  0.00000000E+00  0.00000000E+00  0.00000000E+00
  0.00000000E+00  0.00000000E+00  0.00000000E+00
  0.00000000E+00  0.00000000E+00  0.00000000E+00
  0.00000000E+00  0.00000000E+00  0.00000000E+00
  0.00000000E+00  0.00000000E+00  0.00000000E+00
  0.00000000E+00  0.00000000E+00  0.00000000E+00
  0.00000000E+00  0.00000000E+00  0.00000000E+00
  0.00000000E+00  0.00000000E+00  0.00000000E+00
  0.00000000E+00  0.00000000E+00  0.00000000E+00
  0.00000000E+00  0.00000000E+00  0.00000000E+00
  0.00000000E+00  0.00000000E+00  0.00000000E+00
  0.00000000E+00  0.00000000E+00  0.00000000E+00
  0.00000000E+00  0.00000000E+00  0.00000000E+00
  0.00000000E+00  0.00000000E+00  0.00000000E+00
  0.00000000E+00  0.00000000E+00  0.00000000E+00
  0.00000000E+00  0.00000000E+00  0.00000000E+00
  0.00000000E+00  0.00000000E+00  0.00000000E+00
  0.00000000E+00  0.00000000E+00  0.00000000E+00
  0.00000000E+00  0.00000000E+00  0.00000000E+00
  0.00000000E+00  0.00000000E+00  0.00000000E+00
  0.00000000E+00  0.00000000E+00  0.00000000E+00
  0.00000000E+00  0.00000000E+00  0.00000000E+00
  0.00000000E+00  0.00000000E+00  0.00000000E+00
  0.00000000E+00  0.00000000E+00  0.00000000E+00
  0.00000000E+00  0.00000000E+00  0.00000000E+00
  0.00000000E+00  0.00000000E+00  0.00000000E+00
  0.00000000E+00  0.00000000E+00  0.00000000E+00
  0.00000000E+00  0.00000000E+00  0.00000000E+00
  0.00000000E+00  0.00000000E+00  0.00000000E+00
  0.00000000E+00  0.00000000E+00  0.00000000E+00
  0.00000000E+00  0.00000000E+00  0.00000000E+00
  0.00000000E+00  0.00000000E+00  0.00000000E+00
  0.00000000E+00  0.00000000E+00  0.00000000E+00
  0.00000000E+00  0.00000000E+00  0.00000000E+00
  0.00000000E+00  0.00000000E+00  0.00000000E+00
  0.00000000E+00  0.00000000E+00  0.00000000E+00
  0.00000000E+00  0.00000000E+00  0.00000000E+00
  0.00000000E+00  0.00000000E+00  0.00000000E+00
  0.00000000E+00  0.00000000E+00  0.00000000E+00
  0.00000000E+00  0.00000000E+00  0.00000000E+00
  0.00000000E+00  0.00000000E+00  0.00000000E+00
  0.00000000E+00  0.00000000E+00  0.00000000E+00
  0.00000000E+00  0.00000000E+00  0.00000000E+00
  0.00000000E+00  0.00000000E+00  0.00000000E+00
  0.00000000E+00  0.00000000E+00  0.00000000E+00
  0.00000000E+00  0.00000000E+00  0.00000000E+00
  0.00000000E+00  0.00000000E+00  0.00000000E+00
  0.00000000E+00  0.00000000E+00  0.00000000E+00
  0.00000000E+00  0.00000000E+00  0.00000000E+00
  0.00000000E+00  0.00000000E+00  0.00000000E+00
  0.00000000E+00  0.00000000E+00  0.00000000E+00
  0.00000000E+00  0.00000000E+00  0.00000000E+00
  0.00000000E+00  0.00000000E+00  0.00000000E+00
  0.00000000E+00  0.00000000E+00  0.00000000E+00
  0.00000000E+00  0.00000000E+00  0.00000000E+00
  0.00000000E+00  0.00000000E+00  0.00000000E+00
  0.00000000E+00  0.00000000E+00  0.00000000E+00
  0.00000000E+00  0.00000000E+00  0.00000000E+00
  0.00000000E+00  0.00000000E+00  0.00000000E+00
  0.00000000E+00  0.00000000E+00  0.00000000E+00
  0.00000000E+00  0.00000000E+00  0.00000000E+00
  0.00000000E+00  0.00000000E+00  0.00000000E+00
  0.00000000E+00  0.00000000E+00  0.00000000E+00
  0.00000000E+00  0.00000000E+00  0.00000000E+00
  0.00000000E+00  0.00000000E+00  0.00000000E+00
  0.00000000E+00  0.00000000E+00  0.00000000E+00
  0.00000000E+00  0.00000000E+00  0.00000000E+00
  0.00000000E+00  0.00000000E+00  0.00000000E+00
  0.00000000E+00  0.00000000E+00  0.00000000E+00
  0.00000000E+00  0.00000000E+00  0.00000000E+00
  0.00000000E+00  0.00000000E+00  0.00000000E+00
  0.00000000E+00  0.00000000E+00  0.00000000E+00
  0.00000000E+00  0.00000000E+00  0.00000000E+00
  0.00000000E+00  0.00000000E+00  0.00000000E+00
  0.00000000E+00  0.00000000E+00  0.00000000E+00
  0.00000000E+00  0.00000000E+00  0.00000000E+00
  0.00000000E+00  0.00000000E+00  0.00000000E+00
  0.00000000E+00  0.00000000E+00  0.00000000E+00
  0.00000000E+00  0.00000000E+00  0.00000000E+00
  0.00000000E+00  0.00000000E+00  0.00000000E+00
  0.00000000E+00  0.00000000E+00  0.00000000E+00
  0.00000000E+00  0.00000000E+00  0.00000000E+00
  0.00000000E+00  0.00000000E+00  0.00000000E+00
  0.00000000E+00  0.00000000E+00  0.00000000E+00
  0.00000000E+00  0.00000000E+00  0.00000000E+00
  0.00000000E+00  0.00000000E+00  0.00000000E+00
  0.00000000E+00  0.00000000E+00  0.00000000E+00
  0.00000000E+00  0.00000000E+00  0.00000000E+00
  0.00000000E+00  0.00000000E+00  0.00000000E+00
  0.00000000E+00  0.00000000E+00  0.00000000E+00
  0.00000000E+00  0.00000000E+00  0.00000000E+00
  0.00000000E+00  0.00000000E+00  0.00000000E+00
  0.00000000E+00  0.00000000E+00  0.00000000E+00
  0.00000000E+00  0.00000000E+00  0.00000000E+00
  0.00000000E+00  0.00000000E+00  0.00000000E+00
  0.00000000E+00  0.00000000E+00  0.00000000E+00
  0.00000000E+00  0.00000000E+00  0.00000000E+00
  0.00000000E+00  0.00000000E+00  0.00000000E+00
  0.00000000E+00  0.00000000E+00  0.00000000E+00
  0.00000000E+00  0.00000000E+00  0.00000000E+00
  0.00000000E+00  0.00000000E+00  0.00000000E+00
  0.00000000E+00  0.00000000E+00  0.00000000E+00
  0.00000000E+00  0.00000000E+00  0.00000000E+00
  0.00000000E+00  0.00000000E+00  0.00000000E+00
  0.00000000E+00  0.00000000E+00  0.00000000E+00
  0.00000000E+00  0.00000000E+00  0.00000000E+00
  0.00000000E+00  0.00000000E+00  0.00000000E+00
  0.00000000E+00  0.00000000E+00  0.00000000E+00
  0.00000000E+00  0.00000000E+00  0.00000000E+00
  0.00000000E+00  0.00000000E+00  0.00000000E+00
  0.00000000E+00  0.00000000E+00  0.00000000E+00
  0.00000000E+00  0.00000000E+00  0.00000000E+00
  0.00000000E+00  0.00000000E+00  0.00000000E+00
  0.00000000E+00  0.00000000E+00  0.00000000E+00
  0.00000000E+00  0.00000000E+00  0.00000000E+00
  0.00000000E+00  0.00000000E+00  0.00000000E+00
  0.00000000E+00  0.00000000E+00  0.00000000E+00
  0.00000000E+00  0.00000000E+00  0.00000000E+00
  0.00000000E+00  0.00000000E+00  0.00000000E+00
  0.00000000E+00  0.00000000E+00  0.00000000E+00
  0.00000000E+00  0.00000000E+00  0.00000000E+00
