li7p3s11v2_repeated                     
   1.0000000000000000     
    12.9303569954357584   -0.0055171164728584   -0.0066446093855628
     3.4770799172556122   11.7271612541874983   -0.0563124812770564
    -5.2750953018632378   -1.1251746658341901   11.2568398352299681
   Li   P    S 
    29    12    44
Direct
  0.0089856534818225  0.3796441271112343  0.6291786310554457
  0.6540969846035907  0.0282268189490509  0.0607306535122873
  0.3460971524651839  0.4650791897509023  0.9392062266767738
  0.6434890654287670  0.2663414090107139  0.8578564739016628
  0.3608558769786399  0.2331930179800210  0.1492877726921193
  0.9121038059493287  0.3791066823121554  0.2490788780757853
  0.0581027397885947  0.0945357163354927  0.7480122273749856
  0.6712072782371834  0.3015712939748028  0.5136102891289624
  0.3508491021580724  0.1249933942640311  0.4956521871251809
  0.8336408352721705  0.4856781104237129  0.7713061272519113
  0.1600256745453592  0.0435066852947799  0.1542043942107227
  0.6973420143612117  0.2465321833133984  0.2704867683379319
  0.3038299079230455  0.2351227421417263  0.7321685186369820
  0.0092289613032079  0.0932915791719608  0.3687066563285342
  0.9718977431718372  0.2907545292576117  0.9857503527245939
  0.6508335098857856  0.5340664638802863  0.0611336369698066
  0.3421281695842993  0.9657585697394637  0.9289364134385281
  0.6416474516641628  0.7637109125898789  0.8602149704985464
  0.3604984451664635  0.7266961370199780  0.1451431315566794
  0.9275402834445003  0.8779129237332270  0.2551289428768868
  0.0851797045218561  0.6201000539301589  0.7482219185570429
  0.6428138528593976  0.8626049452053621  0.5009496207454092
  0.3460160425979169  0.6250500940458465  0.4966001106093643
  0.8362266015185114  0.9872361229166415  0.7601207706840540
  0.1601390668946152  0.5509217958207699  0.1501382619784124
  0.7041945658701536  0.7564701184612233  0.2806305736198809
  0.2994467972766088  0.7437903692551799  0.7294790911581543
  0.0070452397065779  0.5940821569530925  0.3723261366127062
  0.9687052466923944  0.7958745097693622  0.9745017677815468
  0.2164043079483733  0.4757920492652516  0.5496203188577837
  0.7850970274307727  0.0113573366768591  0.4632299809231739
  0.5157182932526823  0.4873207756965172  0.7211010494500343
  0.4839518129206795  0.0083732572722965  0.2761019913810543
  0.1587309279519005  0.3670958824638930  0.9424198461194990
  0.8457251848927427  0.1239059996203693  0.0610466417744746
  0.2182553154873972  0.9789663785361711  0.5497303163240090
  0.7875149332291400  0.5098059323473123  0.4614665594466985
  0.5187104705246171  0.9871553788811553  0.7211848461196553
  0.4912519393095138  0.5056773604740741  0.2864328530593880
  0.1565661551399415  0.8659422225527393  0.9429211715846435
  0.8453170380314887  0.6253602253048030  0.0632312972282278
  0.1374717828677561  0.3952073113541914  0.3922338419816001
  0.8417492803800073  0.1100765584688830  0.6181877485214500
  0.2009563416807083  0.4341090910549283  0.6897276561672143
  0.8112578870747669  0.0514561053975626  0.3285912935540338
  0.1733381474114282  0.1508166519206213  0.5411443154752575
  0.8309112054097199  0.3370389074688518  0.4559901151370909
  0.3926764377340675  0.4155358788245920  0.5628668613150865
  0.6052576177739226  0.0781587292059314  0.4364258479478096
  0.6644686476940436  0.3873705151471611  0.7077691936408073
  0.3390824747817973  0.1118321580103583  0.2948495239191615
  0.5077476826936831  0.4561214729195697  0.8685364261193058
  0.4922550878178527  0.0408962279795873  0.1298455855018474
  0.4889303997782903  0.1546383115980063  0.7035681516994998
  0.5174734561280800  0.3392597070723156  0.3058853951154745
  0.1587772984434892  0.3461679223448044  0.0992048196443207
  0.8435573185272958  0.1538505180967604  0.9060881360379014
  0.1547229495677485  0.0347762788859356  0.9512350141004617
  0.8431211939161400  0.4581670620205998  0.0558032500919055
  0.3113666268074127  0.2697060227521817  0.9326569726845335
  0.6938804708146904  0.2226261241064975  0.0733426152004242
  0.0153979539595781  0.3149987927545936  0.8061261251193699
  0.9881583606116706  0.1741292683312352  0.1973887832738512
  0.1437102133267416  0.8969694080185988  0.3905106116547614
  0.8687578223615873  0.5807057603076942  0.6261322327124006
  0.1988428255427408  0.9403989498705769  0.6866203504249313
  0.8103532080040452  0.5580850242940372  0.3292063050962639
  0.1693101754184596  0.6478798770354004  0.5484715544869232
  0.8289552848388411  0.8434061322178152  0.4744826132210918
  0.3952553607750815  0.9170530028746597  0.5631269413316886
  0.6124933512215520  0.5790138321430192  0.4435962930291524
  0.6666047468120837  0.8883773422897434  0.7055717288028518
  0.3445110691074902  0.6096020555402362  0.3006491618570948
  0.5102918341707721  0.9548737022518310  0.8681034324727079
  0.4973425043931101  0.5339252150312817  0.1366618928736401
  0.4865211685007296  0.6542774453618705  0.7023582158841961
  0.5114438375911519  0.8413502965206590  0.2933074183856803
  0.1603826644631852  0.8403850928150760  0.1004582017502855
  0.8432614671050871  0.6562143755803760  0.9086378561743018
  0.1509086656057192  0.5360471786928400  0.9445763314625708
  0.8474995299507668  0.9570184827644113  0.0590065929195589
  0.3076243825013805  0.7665264069965190  0.9289227889486824
  0.6945890984025809  0.7249048342380533  0.0776556273680100
  0.0123692394310311  0.8220404977057001  0.8064223992216739
  0.9890023697087003  0.6713972318602046  0.2008020308811140

  0.00000000E+00  0.00000000E+00  0.00000000E+00
  0.00000000E+00  0.00000000E+00  0.00000000E+00
  0.00000000E+00  0.00000000E+00  0.00000000E+00
  0.00000000E+00  0.00000000E+00  0.00000000E+00
  0.00000000E+00  0.00000000E+00  0.00000000E+00
  0.00000000E+00  0.00000000E+00  0.00000000E+00
  0.00000000E+00  0.00000000E+00  0.00000000E+00
  0.00000000E+00  0.00000000E+00  0.00000000E+00
  0.00000000E+00  0.00000000E+00  0.00000000E+00
  0.00000000E+00  0.00000000E+00  0.00000000E+00
  0.00000000E+00  0.00000000E+00  0.00000000E+00
  0.00000000E+00  0.00000000E+00  0.00000000E+00
  0.00000000E+00  0.00000000E+00  0.00000000E+00
  0.00000000E+00  0.00000000E+00  0.00000000E+00
  0.00000000E+00  0.00000000E+00  0.00000000E+00
  0.00000000E+00  0.00000000E+00  0.00000000E+00
  0.00000000E+00  0.00000000E+00  0.00000000E+00
  0.00000000E+00  0.00000000E+00  0.00000000E+00
  0.00000000E+00  0.00000000E+00  0.00000000E+00
  0.00000000E+00  0.00000000E+00  0.00000000E+00
  0.00000000E+00  0.00000000E+00  0.00000000E+00
  0.00000000E+00  0.00000000E+00  0.00000000E+00
  0.00000000E+00  0.00000000E+00  0.00000000E+00
  0.00000000E+00  0.00000000E+00  0.00000000E+00
  0.00000000E+00  0.00000000E+00  0.00000000E+00
  0.00000000E+00  0.00000000E+00  0.00000000E+00
  0.00000000E+00  0.00000000E+00  0.00000000E+00
  0.00000000E+00  0.00000000E+00  0.00000000E+00
  0.00000000E+00  0.00000000E+00  0.00000000E+00
  0.00000000E+00  0.00000000E+00  0.00000000E+00
  0.00000000E+00  0.00000000E+00  0.00000000E+00
  0.00000000E+00  0.00000000E+00  0.00000000E+00
  0.00000000E+00  0.00000000E+00  0.00000000E+00
  0.00000000E+00  0.00000000E+00  0.00000000E+00
  0.00000000E+00  0.00000000E+00  0.00000000E+00
  0.00000000E+00  0.00000000E+00  0.00000000E+00
  0.00000000E+00  0.00000000E+00  0.00000000E+00
  0.00000000E+00  0.00000000E+00  0.00000000E+00
  0.00000000E+00  0.00000000E+00  0.00000000E+00
  0.00000000E+00  0.00000000E+00  0.00000000E+00
  0.00000000E+00  0.00000000E+00  0.00000000E+00
  0.00000000E+00  0.00000000E+00  0.00000000E+00
  0.00000000E+00  0.00000000E+00  0.00000000E+00
  0.00000000E+00  0.00000000E+00  0.00000000E+00
  0.00000000E+00  0.00000000E+00  0.00000000E+00
  0.00000000E+00  0.00000000E+00  0.00000000E+00
  0.00000000E+00  0.00000000E+00  0.00000000E+00
  0.00000000E+00  0.00000000E+00  0.00000000E+00
  0.00000000E+00  0.00000000E+00  0.00000000E+00
  0.00000000E+00  0.00000000E+00  0.00000000E+00
  0.00000000E+00  0.00000000E+00  0.00000000E+00
  0.00000000E+00  0.00000000E+00  0.00000000E+00
  0.00000000E+00  0.00000000E+00  0.00000000E+00
  0.00000000E+00  0.00000000E+00  0.00000000E+00
  0.00000000E+00  0.00000000E+00  0.00000000E+00
  0.00000000E+00  0.00000000E+00  0.00000000E+00
  0.00000000E+00  0.00000000E+00  0.00000000E+00
  0.00000000E+00  0.00000000E+00  0.00000000E+00
  0.00000000E+00  0.00000000E+00  0.00000000E+00
  0.00000000E+00  0.00000000E+00  0.00000000E+00
  0.00000000E+00  0.00000000E+00  0.00000000E+00
  0.00000000E+00  0.00000000E+00  0.00000000E+00
  0.00000000E+00  0.00000000E+00  0.00000000E+00
  0.00000000E+00  0.00000000E+00  0.00000000E+00
  0.00000000E+00  0.00000000E+00  0.00000000E+00
  0.00000000E+00  0.00000000E+00  0.00000000E+00
  0.00000000E+00  0.00000000E+00  0.00000000E+00
  0.00000000E+00  0.00000000E+00  0.00000000E+00
  0.00000000E+00  0.00000000E+00  0.00000000E+00
  0.00000000E+00  0.00000000E+00  0.00000000E+00
  0.00000000E+00  0.00000000E+00  0.00000000E+00
  0.00000000E+00  0.00000000E+00  0.00000000E+00
  0.00000000E+00  0.00000000E+00  0.00000000E+00
  0.00000000E+00  0.00000000E+00  0.00000000E+00
  0.00000000E+00  0.00000000E+00  0.00000000E+00
  0.00000000E+00  0.00000000E+00  0.00000000E+00
  0.00000000E+00  0.00000000E+00  0.00000000E+00
  0.00000000E+00  0.00000000E+00  0.00000000E+00
  0.00000000E+00  0.00000000E+00  0.00000000E+00
  0.00000000E+00  0.00000000E+00  0.00000000E+00
  0.00000000E+00  0.00000000E+00  0.00000000E+00
  0.00000000E+00  0.00000000E+00  0.00000000E+00
  0.00000000E+00  0.00000000E+00  0.00000000E+00
  0.00000000E+00  0.00000000E+00  0.00000000E+00
  0.00000000E+00  0.00000000E+00  0.00000000E+00
