OUTCAR                                  
   1.00000000000000     
    13.0219330000000006    0.0000000000000000    0.0000000000000000
     0.0000000000000000   13.0219330000000006    0.0000000000000000
     0.0000000000000000    0.0000000000000000   13.0219330000000006
   La   Li   O    r 
    24    55    96    16
Direct
  0.9981526551214301  0.2433877498512800  0.1280542860176368
  0.9961146745673375  0.2481304646360627  0.6266736929089447
  0.9986896692774110  0.7454338424599953  0.3793722049842074
  0.9991850825128736  0.7449305389792045  0.8694048924564299
  0.1222714427602511  0.9959291524615708  0.2521552119064339
  0.1301206050354793  0.4937211347416621  0.7519964206805341
  0.2504964605020277  0.1107092091527164  0.0050560807909079
  0.2484916144976879  0.3741747450303450  0.5029853571327294
  0.2486848342367409  0.6237040601353385  0.0024068197904157
  0.2498632795788254  0.8727989649662504  0.4983924139600688
  0.3761808876095571  0.9951892329292917  0.7513016204742300
  0.3763088557223710  0.4978816232853802  0.2509541648396265
  0.4989555967914754  0.2452187582605490  0.3790547889555214
  0.4971068295060448  0.2453287274466334  0.8859513989683521
  0.4952254908867175  0.7488279292180593  0.1340515539566951
  0.4997930311833940  0.7472860169541349  0.6196239691566277
  0.6215331925791290  0.9928766950063945  0.2532770989774136
  0.6162379695641889  0.4974272216451183  0.7538763756884066
  0.7492159986870277  0.1285685055043828  0.4990996584195315
  0.7481818928334434  0.3767253279864988  0.0008784852969299
  0.7501678793205784  0.6137573211006071  0.5024620636027350
  0.7486807243113986  0.8639983586070556  0.0019828410606735
  0.8674145727265525  0.9959101314792775  0.7504272468388962
  0.8761919685872925  0.4925756500787841  0.2531802085412949
  0.0048527981059863  0.2431531382207623  0.8771832526979182
  0.0031221642642834  0.7454382110074675  0.6256933989836853
  0.0849353946869087  0.0715929494587613  0.7947335780501845
  0.0790324967214602  0.3931176972972850  0.3217331054431867
  0.0805590201283479  0.9097039845515411  0.6829244993447361
  0.1487748697071680  0.1747181634934520  0.4359789324188554
  0.1712021770485919  0.3299994056596489  0.9629885585048754
  0.0714285354425712  0.6037211139126981  0.1793769631192532
  0.1637740286947178  0.6582822892637239  0.5453570130105874
  0.0800706051830673  0.7975179738233393  0.0822356287525992
  0.1710459907402253  0.5622121028812543  0.3412539159960915
  0.1766178684136648  0.9207899273793601  0.8541790542212127
  0.1770773422064664  0.0713274940303137  0.6016671385115799
  0.1740631486954030  0.4334824721159976  0.1532858043132777
  0.3291482650579596  0.6622844913614614  0.4328881152682982
  0.2553680464225536  0.8705484048283409  0.0162800688410840
  0.3204112627079638  0.5732851528038410  0.5982660721083448
  0.3167364626315887  0.0738307111407508  0.4019232841119091
  0.3195490905089429  0.4220658998866469  0.9087372959084874
  0.3409151647925768  0.1695466108403565  0.5694954314572627
  0.3415144174486713  0.3258943129583400  0.0726157316455840
  0.4584577682032389  0.1760454362873389  0.1604934840066932
  0.3757274736061476  0.4918902421193749  0.7495101975139988
  0.4848240072391334  0.7637328629407207  0.3728935387770846
  0.4080309129417685  0.8065092557977209  0.9212144683862107
  0.5627491049658389  0.3364008765481188  0.1657710745009311
  0.4329201448032549  0.3254723918632791  0.6698488837571617
  0.4314470135060446  0.6501497693606595  0.8230567108392108
  0.3728870397632775  0.9847873027903020  0.2430085845001102
  0.5398605832884513  0.1646678154498886  0.6654996480441611
  0.5668107238469702  0.8404195231321694  0.8253291542881200
  0.6524454437601719  0.1703218547297851  0.0686221881999174
  0.6048572158748371  0.3195693350197217  0.5795547630538991
  0.6220985067181530  0.0005792529153936  0.7490502401800043
  0.5741290615460173  0.6057224112493174  0.3261322435727152
  0.5874709423061759  0.6850419427800389  0.9259173718863849
  0.6547088142617028  0.8138548257727862  0.4349669624476533
  0.6617197173919038  0.5403422270892051  0.1718440824788274
  0.6831363723676134  0.9207185598565886  0.5898398969824328
  0.6799336374892420  0.0702025701073481  0.9108504312240697
  0.6625832859395473  0.4302414490998601  0.3294847686625175
  0.7613445651149746  0.3685657815912435  0.4890236225326703
  0.8105610398448491  0.9165726335824047  0.4075239761527172
  0.7486894991994220  0.6216672365864682  0.0055931043583897
  0.8114490070170461  0.0685274755628456  0.0900753029051700
  0.8160762470166461  0.4281146553175290  0.6585816425331146
  0.8403682425125609  0.1701990387436041  0.9358361885435187
  0.9786508985713454  0.2419578170180969  0.3769511871189621
  0.8766167048050875  0.0128463511459316  0.2601611032380333
  0.8239255125556397  0.5631955754035403  0.8458856992499477
  0.9147059763946075  0.6807923801111500  0.0822908840608605
  0.8414426107202715  0.8216937400743944  0.5674194995913879
  0.9199597583212125  0.4004229558826253  0.8151175142769063
  0.9233603100395840  0.5830453956550272  0.6864244216193782
  0.9285586894422622  0.8500005928710479  0.1785743635978463
  0.0320379341250216  0.0481111946386150  0.6526338158470821
  0.0307208905765393  0.4465559712424110  0.1487383952183308
  0.0299338908999260  0.5437580677123748  0.3525501403339391
  0.0296045632870161  0.9412704001387340  0.8462461556673020
  0.0541526095208553  0.1420228692567207  0.9705994515030696
  0.0578338669260461  0.3456868889753153  0.4678205283078967
  0.0517250365982207  0.6471120289017449  0.0328390188647560
  0.0532750954575505  0.8509651996908545  0.5369124412010322
  0.0991047441327808  0.1986600633620696  0.2879919949034502
  0.1011943162628484  0.3027453267587319  0.7845651256958277
  0.1001399635173499  0.6891128488594234  0.7198743240564838
  0.0955383440610191  0.8059554272676479  0.2248856487514459
  0.1450996665466775  0.0302220498040029  0.4502944334985131
  0.1513530260751352  0.4709695812347690  0.9445095016986684
  0.1487228279363322  0.5178305645080314  0.5645706386952583
  0.1448596816145553  0.9587286536700788  0.0516430667261076
  0.1940049581358068  0.2133501425020086  0.6058340258883774
  0.1946005101798534  0.2826221037234831  0.1049513171361056
  0.1901251088416487  0.7079724321241230  0.3991448527365762
  0.1938788228898218  0.7774659541167352  0.8973802764052792
  0.2252103642665659  0.0932663350291421  0.8129497434686215
  0.2214738498361797  0.3999423722289563  0.3041905273853871
  0.2136520605272096  0.5977968581810700  0.1979872013329285
  0.2224282623859395  0.8952660566490138  0.7021416552443043
  0.2730461328566491  0.0967544196499261  0.2004720423825646
  0.2886482312919796  0.3886790372741515  0.6978956810923762
  0.2862410540664300  0.5965050412369877  0.8025990310205628
  0.2699946678429299  0.8975397982260631  0.3124209824860387
  0.2993986222139569  0.2170808560907034  0.4052601299770444
  0.3014995572133827  0.2773964657619103  0.9079060406079833
  0.2952784237571677  0.7137037604457745  0.5941686801145920
  0.3062997969841064  0.7699524968060203  0.1047242811940734
  0.3479242405321017  0.0280196415599150  0.5507192426886434
  0.3500828124313315  0.4684750003419254  0.0528968576847859
  0.3493577653268716  0.5248688203146443  0.4571130004473360
  0.3532460343847106  0.9525917148692642  0.9418616391138315
  0.3954646362638314  0.1887208402177549  0.7155617725248504
  0.3979284152773985  0.2997053558757585  0.2146590771726125
  0.3908194751580822  0.6887630068208210  0.2920912567863141
  0.4019297702713089  0.7931480949144216  0.7762266032560845
  0.4369832516983152  0.1377615408391293  0.0269915369750393
  0.4539882021545480  0.3462930836828733  0.5302189435319562
  0.4463755386991650  0.6507154869323486  0.9679549883566381
  0.4417266464806104  0.8482729044355111  0.4782852089272183
  0.4647643575213891  0.0552956194990770  0.3526756573050704
  0.4628236840929532  0.4457124905638423  0.8549014810799775
  0.4638749420499408  0.5558088075118022  0.6499037441451634
  0.4784851062271827  0.9381197730737583  0.1512310185456727
  0.5344291406881467  0.0499332381367665  0.8550516637136027
  0.5255383006560521  0.4521198610088462  0.3514798655621050
  0.5228390040359088  0.5581752984372628  0.1512985875159885
  0.5346564222105030  0.9439506296850482  0.6481669816079219
  0.5595474388580755  0.1467331155563443  0.5251741659831310
  0.5579042138975439  0.3517937163922724  0.0250493823590787
  0.5589379424655618  0.6457431081729652  0.4684485045735372
  0.5516574984103784  0.8403859333084185  0.9693694471711396
  0.5995321964051428  0.1945136674435233  0.2102601587837540
  0.5898864955778436  0.2953629342414601  0.7238565993329686
  0.5973142127418853  0.6938663562899379  0.7809718802033885
  0.6027004572660957  0.7929475505574786  0.2895617889230309
  0.6515520618046935  0.0246532129998798  0.0513582615696109
  0.6481519612256648  0.4623178183914618  0.5627894900447714
  0.6466685593393819  0.5355305902646421  0.9451651444005549
  0.6487223485513880  0.9602514953034103  0.4470072322488008
  0.6946520477335625  0.2143734138889428  0.9054615438452700
  0.6883987980497182  0.2868079095298768  0.3926953767964463
  0.6938276000924546  0.7139298889500978  0.1036599710346380
  0.6970719116022366  0.7755273553292241  0.5994751451329421
  0.7167293594520316  0.0966360553825183  0.6957871653243473
  0.7109421910204432  0.3947304209983002  0.1924089054903391
  0.7169070320458530  0.5894899651695695  0.3013330942870809
  0.7122712088050278  0.8919321179680608  0.8071313365473571
  0.7703693696950964  0.0984132536007394  0.3095701850900809
  0.7732395020284173  0.3972571980945645  0.8049070450986591
  0.7785190723090452  0.5925335716918028  0.7011486861104714
  0.7832175397772048  0.8919389558084845  0.1983997948496992
  0.8005372476668242  0.2128724713070085  0.0974901764696767
  0.7916664001435549  0.2837428449584039  0.6063079939778362
  0.8064320167293957  0.7099857501667302  0.8963409128150062
  0.8001044928955210  0.7712668540357583  0.4052486035014056
  0.8464265405315174  0.0241291666605647  0.9467744932158411
  0.8502444307255317  0.4711655729618300  0.4461450071981119
  0.8530034773295796  0.5316247209057678  0.0536749459407133
  0.8432661880768961  0.9660655222351480  0.5521711850262605
  0.8924670551953540  0.1925473624932081  0.7868637201443534
  0.8973342389210188  0.3058556530780692  0.2708300162788220
  0.9008797407662286  0.6926874035125934  0.2252352615355520
  0.8939586660436589  0.8028608779221855  0.7135860777552026
  0.9414375064999660  0.1481751735003556  0.4828482896983388
  0.9435382079083112  0.3484222139622943  0.9659389267048937
  0.9482965200798574  0.6412407873055130  0.5390530667057405
  0.9451353030799510  0.8414810889465301  0.0308075568521886
  0.9625242078652008  0.0479016880319563  0.1459864983406050
  0.9630424335983747  0.4382483914708644  0.6524085628136049
  0.9683281568515341  0.5463904322130659  0.8463255816057540
  0.9598998398619969  0.9372475492502446  0.3555697816669579
  0.9995688166709229  0.9953301926822462  0.9987760366378993
  0.9947152875251390  0.9986458264049816  0.4992454228654282
  0.0006032662099145  0.4942130376825986  0.9985365110901085
  0.9982043919322763  0.4918434868629973  0.5019850518357671
  0.2481695694235384  0.2448979706373393  0.2529277015168958
  0.2461087189251714  0.2435462690338426  0.7571202763997036
  0.2468499347526816  0.7520672539753264  0.2501724856194869
  0.2481714083079751  0.7438142613165013  0.7478078979090199
  0.4974704896134838  0.9912470857408593  0.0030567794575020
  0.4990064905273286  0.9960889344556776  0.4984909310558550
  0.4997081893748430  0.5009659680181571  0.0030124239654299
  0.5005373189619604  0.4969364470770614  0.5020451189784865
  0.7511330746845459  0.2444369767036108  0.2503922016010662
  0.7429918339797297  0.2435461554675200  0.7528924445845604
  0.7495034583075082  0.7421592563994253  0.2504543624745210
  0.7478627142509637  0.7446133390587875  0.7499827973513504
 
  0.00000000E+00  0.00000000E+00  0.00000000E+00
  0.00000000E+00  0.00000000E+00  0.00000000E+00
  0.00000000E+00  0.00000000E+00  0.00000000E+00
  0.00000000E+00  0.00000000E+00  0.00000000E+00
  0.00000000E+00  0.00000000E+00  0.00000000E+00
  0.00000000E+00  0.00000000E+00  0.00000000E+00
  0.00000000E+00  0.00000000E+00  0.00000000E+00
  0.00000000E+00  0.00000000E+00  0.00000000E+00
  0.00000000E+00  0.00000000E+00  0.00000000E+00
  0.00000000E+00  0.00000000E+00  0.00000000E+00
  0.00000000E+00  0.00000000E+00  0.00000000E+00
  0.00000000E+00  0.00000000E+00  0.00000000E+00
  0.00000000E+00  0.00000000E+00  0.00000000E+00
  0.00000000E+00  0.00000000E+00  0.00000000E+00
  0.00000000E+00  0.00000000E+00  0.00000000E+00
  0.00000000E+00  0.00000000E+00  0.00000000E+00
  0.00000000E+00  0.00000000E+00  0.00000000E+00
  0.00000000E+00  0.00000000E+00  0.00000000E+00
  0.00000000E+00  0.00000000E+00  0.00000000E+00
  0.00000000E+00  0.00000000E+00  0.00000000E+00
  0.00000000E+00  0.00000000E+00  0.00000000E+00
  0.00000000E+00  0.00000000E+00  0.00000000E+00
  0.00000000E+00  0.00000000E+00  0.00000000E+00
  0.00000000E+00  0.00000000E+00  0.00000000E+00
  0.00000000E+00  0.00000000E+00  0.00000000E+00
  0.00000000E+00  0.00000000E+00  0.00000000E+00
  0.00000000E+00  0.00000000E+00  0.00000000E+00
  0.00000000E+00  0.00000000E+00  0.00000000E+00
  0.00000000E+00  0.00000000E+00  0.00000000E+00
  0.00000000E+00  0.00000000E+00  0.00000000E+00
  0.00000000E+00  0.00000000E+00  0.00000000E+00
  0.00000000E+00  0.00000000E+00  0.00000000E+00
  0.00000000E+00  0.00000000E+00  0.00000000E+00
  0.00000000E+00  0.00000000E+00  0.00000000E+00
  0.00000000E+00  0.00000000E+00  0.00000000E+00
  0.00000000E+00  0.00000000E+00  0.00000000E+00
  0.00000000E+00  0.00000000E+00  0.00000000E+00
  0.00000000E+00  0.00000000E+00  0.00000000E+00
  0.00000000E+00  0.00000000E+00  0.00000000E+00
  0.00000000E+00  0.00000000E+00  0.00000000E+00
  0.00000000E+00  0.00000000E+00  0.00000000E+00
  0.00000000E+00  0.00000000E+00  0.00000000E+00
  0.00000000E+00  0.00000000E+00  0.00000000E+00
  0.00000000E+00  0.00000000E+00  0.00000000E+00
  0.00000000E+00  0.00000000E+00  0.00000000E+00
  0.00000000E+00  0.00000000E+00  0.00000000E+00
  0.00000000E+00  0.00000000E+00  0.00000000E+00
  0.00000000E+00  0.00000000E+00  0.00000000E+00
  0.00000000E+00  0.00000000E+00  0.00000000E+00
  0.00000000E+00  0.00000000E+00  0.00000000E+00
  0.00000000E+00  0.00000000E+00  0.00000000E+00
  0.00000000E+00  0.00000000E+00  0.00000000E+00
  0.00000000E+00  0.00000000E+00  0.00000000E+00
  0.00000000E+00  0.00000000E+00  0.00000000E+00
  0.00000000E+00  0.00000000E+00  0.00000000E+00
  0.00000000E+00  0.00000000E+00  0.00000000E+00
  0.00000000E+00  0.00000000E+00  0.00000000E+00
  0.00000000E+00  0.00000000E+00  0.00000000E+00
  0.00000000E+00  0.00000000E+00  0.00000000E+00
  0.00000000E+00  0.00000000E+00  0.00000000E+00
  0.00000000E+00  0.00000000E+00  0.00000000E+00
  0.00000000E+00  0.00000000E+00  0.00000000E+00
  0.00000000E+00  0.00000000E+00  0.00000000E+00
  0.00000000E+00  0.00000000E+00  0.00000000E+00
  0.00000000E+00  0.00000000E+00  0.00000000E+00
  0.00000000E+00  0.00000000E+00  0.00000000E+00
  0.00000000E+00  0.00000000E+00  0.00000000E+00
  0.00000000E+00  0.00000000E+00  0.00000000E+00
  0.00000000E+00  0.00000000E+00  0.00000000E+00
  0.00000000E+00  0.00000000E+00  0.00000000E+00
  0.00000000E+00  0.00000000E+00  0.00000000E+00
  0.00000000E+00  0.00000000E+00  0.00000000E+00
  0.00000000E+00  0.00000000E+00  0.00000000E+00
  0.00000000E+00  0.00000000E+00  0.00000000E+00
  0.00000000E+00  0.00000000E+00  0.00000000E+00
  0.00000000E+00  0.00000000E+00  0.00000000E+00
  0.00000000E+00  0.00000000E+00  0.00000000E+00
  0.00000000E+00  0.00000000E+00  0.00000000E+00
  0.00000000E+00  0.00000000E+00  0.00000000E+00
  0.00000000E+00  0.00000000E+00  0.00000000E+00
  0.00000000E+00  0.00000000E+00  0.00000000E+00
  0.00000000E+00  0.00000000E+00  0.00000000E+00
  0.00000000E+00  0.00000000E+00  0.00000000E+00
  0.00000000E+00  0.00000000E+00  0.00000000E+00
  0.00000000E+00  0.00000000E+00  0.00000000E+00
  0.00000000E+00  0.00000000E+00  0.00000000E+00
  0.00000000E+00  0.00000000E+00  0.00000000E+00
  0.00000000E+00  0.00000000E+00  0.00000000E+00
  0.00000000E+00  0.00000000E+00  0.00000000E+00
  0.00000000E+00  0.00000000E+00  0.00000000E+00
  0.00000000E+00  0.00000000E+00  0.00000000E+00
  0.00000000E+00  0.00000000E+00  0.00000000E+00
  0.00000000E+00  0.00000000E+00  0.00000000E+00
  0.00000000E+00  0.00000000E+00  0.00000000E+00
  0.00000000E+00  0.00000000E+00  0.00000000E+00
  0.00000000E+00  0.00000000E+00  0.00000000E+00
  0.00000000E+00  0.00000000E+00  0.00000000E+00
  0.00000000E+00  0.00000000E+00  0.00000000E+00
  0.00000000E+00  0.00000000E+00  0.00000000E+00
  0.00000000E+00  0.00000000E+00  0.00000000E+00
  0.00000000E+00  0.00000000E+00  0.00000000E+00
  0.00000000E+00  0.00000000E+00  0.00000000E+00
  0.00000000E+00  0.00000000E+00  0.00000000E+00
  0.00000000E+00  0.00000000E+00  0.00000000E+00
  0.00000000E+00  0.00000000E+00  0.00000000E+00
  0.00000000E+00  0.00000000E+00  0.00000000E+00
  0.00000000E+00  0.00000000E+00  0.00000000E+00
  0.00000000E+00  0.00000000E+00  0.00000000E+00
  0.00000000E+00  0.00000000E+00  0.00000000E+00
  0.00000000E+00  0.00000000E+00  0.00000000E+00
  0.00000000E+00  0.00000000E+00  0.00000000E+00
  0.00000000E+00  0.00000000E+00  0.00000000E+00
  0.00000000E+00  0.00000000E+00  0.00000000E+00
  0.00000000E+00  0.00000000E+00  0.00000000E+00
  0.00000000E+00  0.00000000E+00  0.00000000E+00
  0.00000000E+00  0.00000000E+00  0.00000000E+00
  0.00000000E+00  0.00000000E+00  0.00000000E+00
  0.00000000E+00  0.00000000E+00  0.00000000E+00
  0.00000000E+00  0.00000000E+00  0.00000000E+00
  0.00000000E+00  0.00000000E+00  0.00000000E+00
  0.00000000E+00  0.00000000E+00  0.00000000E+00
  0.00000000E+00  0.00000000E+00  0.00000000E+00
  0.00000000E+00  0.00000000E+00  0.00000000E+00
  0.00000000E+00  0.00000000E+00  0.00000000E+00
  0.00000000E+00  0.00000000E+00  0.00000000E+00
  0.00000000E+00  0.00000000E+00  0.00000000E+00
  0.00000000E+00  0.00000000E+00  0.00000000E+00
  0.00000000E+00  0.00000000E+00  0.00000000E+00
  0.00000000E+00  0.00000000E+00  0.00000000E+00
  0.00000000E+00  0.00000000E+00  0.00000000E+00
  0.00000000E+00  0.00000000E+00  0.00000000E+00
  0.00000000E+00  0.00000000E+00  0.00000000E+00
  0.00000000E+00  0.00000000E+00  0.00000000E+00
  0.00000000E+00  0.00000000E+00  0.00000000E+00
  0.00000000E+00  0.00000000E+00  0.00000000E+00
  0.00000000E+00  0.00000000E+00  0.00000000E+00
  0.00000000E+00  0.00000000E+00  0.00000000E+00
  0.00000000E+00  0.00000000E+00  0.00000000E+00
  0.00000000E+00  0.00000000E+00  0.00000000E+00
  0.00000000E+00  0.00000000E+00  0.00000000E+00
  0.00000000E+00  0.00000000E+00  0.00000000E+00
  0.00000000E+00  0.00000000E+00  0.00000000E+00
  0.00000000E+00  0.00000000E+00  0.00000000E+00
  0.00000000E+00  0.00000000E+00  0.00000000E+00
  0.00000000E+00  0.00000000E+00  0.00000000E+00
  0.00000000E+00  0.00000000E+00  0.00000000E+00
  0.00000000E+00  0.00000000E+00  0.00000000E+00
  0.00000000E+00  0.00000000E+00  0.00000000E+00
  0.00000000E+00  0.00000000E+00  0.00000000E+00
  0.00000000E+00  0.00000000E+00  0.00000000E+00
  0.00000000E+00  0.00000000E+00  0.00000000E+00
  0.00000000E+00  0.00000000E+00  0.00000000E+00
  0.00000000E+00  0.00000000E+00  0.00000000E+00
  0.00000000E+00  0.00000000E+00  0.00000000E+00
  0.00000000E+00  0.00000000E+00  0.00000000E+00
  0.00000000E+00  0.00000000E+00  0.00000000E+00
  0.00000000E+00  0.00000000E+00  0.00000000E+00
  0.00000000E+00  0.00000000E+00  0.00000000E+00
  0.00000000E+00  0.00000000E+00  0.00000000E+00
  0.00000000E+00  0.00000000E+00  0.00000000E+00
  0.00000000E+00  0.00000000E+00  0.00000000E+00
  0.00000000E+00  0.00000000E+00  0.00000000E+00
  0.00000000E+00  0.00000000E+00  0.00000000E+00
  0.00000000E+00  0.00000000E+00  0.00000000E+00
  0.00000000E+00  0.00000000E+00  0.00000000E+00
  0.00000000E+00  0.00000000E+00  0.00000000E+00
  0.00000000E+00  0.00000000E+00  0.00000000E+00
  0.00000000E+00  0.00000000E+00  0.00000000E+00
  0.00000000E+00  0.00000000E+00  0.00000000E+00
  0.00000000E+00  0.00000000E+00  0.00000000E+00
  0.00000000E+00  0.00000000E+00  0.00000000E+00
  0.00000000E+00  0.00000000E+00  0.00000000E+00
  0.00000000E+00  0.00000000E+00  0.00000000E+00
  0.00000000E+00  0.00000000E+00  0.00000000E+00
  0.00000000E+00  0.00000000E+00  0.00000000E+00
  0.00000000E+00  0.00000000E+00  0.00000000E+00
  0.00000000E+00  0.00000000E+00  0.00000000E+00
  0.00000000E+00  0.00000000E+00  0.00000000E+00
  0.00000000E+00  0.00000000E+00  0.00000000E+00
  0.00000000E+00  0.00000000E+00  0.00000000E+00
  0.00000000E+00  0.00000000E+00  0.00000000E+00
  0.00000000E+00  0.00000000E+00  0.00000000E+00
  0.00000000E+00  0.00000000E+00  0.00000000E+00
  0.00000000E+00  0.00000000E+00  0.00000000E+00
  0.00000000E+00  0.00000000E+00  0.00000000E+00
  0.00000000E+00  0.00000000E+00  0.00000000E+00
  0.00000000E+00  0.00000000E+00  0.00000000E+00
  0.00000000E+00  0.00000000E+00  0.00000000E+00
  0.00000000E+00  0.00000000E+00  0.00000000E+00
  0.00000000E+00  0.00000000E+00  0.00000000E+00
  0.00000000E+00  0.00000000E+00  0.00000000E+00
