li7p3s11v2_repeated                     
   1.0000000000000000     
    12.9303569954357584   -0.0055171164728584   -0.0066446093855628
     3.4770799172556122   11.7271612541874983   -0.0563124812770564
    -5.2750953018632378   -1.1251746658341901   11.2568398352299681
   Li   P    S    S 
    28    12    43     1
Direct
  0.6587159811723353  0.0239661605037469  0.0656497872834549
  0.3417842712248955  0.4683356652058137  0.9237981481592215
  0.6466134968283797  0.2724334681984146  0.8658057865220172
  0.3571489501958567  0.2229442791130012  0.1373672000424619
  0.9069483778171232  0.3855072220192213  0.2585742167037637
  0.0633316320023027  0.1054349532275793  0.7390253568546541
  0.6484530644920383  0.3448375266767201  0.5122952167736514
  0.3584621722594292  0.1905946494382889  0.4981597242952844
  0.8419564980588348  0.4877391442250314  0.7679610529350072
  0.1672678650924411  0.0175612344032956  0.2205280355551196
  0.6973743041399132  0.2514635339198961  0.2787185722346024
  0.2971886945399049  0.2541329688624501  0.7245061094854321
  0.0046006224934985  0.1129869293449985  0.3831833453208375
  0.9736416905888561  0.2919760706223613  0.9776293013330388
  0.6573230897979840  0.5367450577286235  0.0804436971379303
  0.3345128052811503  0.9701932819314010  0.9114948187518621
  0.6438938742011118  0.7714876761318052  0.8584492567160709
  0.3685477719086805  0.7334699732361685  0.1306129468930877
  0.9366448492609578  0.8876301291218667  0.2621652317387770
  0.0594976430744225  0.6005821714901316  0.7352695815205408
  0.6700033300165273  0.8106775600278482  0.5162039655940447
  0.3710978118032102  0.5982135619788025  0.5054801516057381
  0.8472486698837116  0.9880240420116522  0.7694626701852556
  0.1576586239385094  0.5094602775132557  0.2317881079926849
  0.7013924161098046  0.7654244863195245  0.2773022781366095
  0.2939337985938550  0.7433425525455775  0.7118770037421456
  0.9903237361434378  0.6115009651130521  0.3762808421908872
  0.9876434658345659  0.7773783918134498  0.9823162702848052
  0.2117846389628681  0.4737699529776265  0.5231357866688455
  0.7869407167124436  0.0135059140134715  0.4676743256299716
  0.5284791103242412  0.4944351523597277  0.7388825590607198
  0.4882462761077164  0.0057420403578234  0.2822696943548948
  0.1562314073782005  0.3709218054242029  0.9362602680532319
  0.8469039515411367  0.1241702167824670  0.0674466416616539
  0.2280639830752236  0.9898958496761310  0.5393103502299184
  0.7727452664391024  0.5174461541434923  0.4614778671371269
  0.5212728674230789  0.9953452856558727  0.7214670164858816
  0.4753002107339555  0.5053071636532351  0.2796817045396907
  0.1584434150454612  0.8695339949742760  0.9350783511287730
  0.8440430228176723  0.6290800571974131  0.0663903943347819
  0.1052957488291355  0.4139672099022889  0.3606024036174489
  0.8480067041077604  0.1054687694997298  0.6245953356773342
  0.1876880651057249  0.4433571366411542  0.6625708508236201
  0.8156045524124593  0.0567586471546093  0.3355458187845670
  0.1847861338443479  0.1614689246592960  0.5353677723520462
  0.8221589853504270  0.3479423677969962  0.4659345992109181
  0.6074700428102915  0.0810277832005681  0.4386931781262078
  0.3401781589850046  0.1078253276213630  0.2944727191621226
  0.5229751682379558  0.4636266132155527  0.8895580653199247
  0.4961564110608663  0.0317569247189695  0.1325772185929779
  0.4927348215830207  0.1634014897935927  0.7085620641070136
  0.5090931460593922  0.3371900623945692  0.2980120618617761
  0.1617033269780350  0.3410813179813346  0.0936645886295651
  0.8442667300641062  0.1563554537419236  0.9131891086912489
  0.1499200323044718  0.0373249263918609  0.9373614339864744
  0.8482518195765607  0.4616680939032634  0.0650455493210700
  0.3089918579660207  0.2720442222490007  0.9243737467935063
  0.6929551602120227  0.2186972422650868  0.0784355058434372
  0.0126909460270923  0.3193607498362567  0.8042343573565702
  0.9846946974490436  0.1790670662276810  0.2050796087885516
  0.1502040682974979  0.9150199281434794  0.3745401652222853
  0.8355088893857712  0.6116433525531804  0.6174860441471637
  0.1955911385242644  0.9464563067580940  0.6659783482088741
  0.7935891002841373  0.5644980699102149  0.3267035474300002
  0.1792577102633359  0.6473435261269600  0.5222516920892346
  0.8300477396438239  0.8435774824513729  0.4696911732686289
  0.4052872654870541  0.9211477898816938  0.5620336553902234
  0.5946563232344673  0.5784012020115767  0.4392073419692153
  0.6723558809363155  0.8965610332954057  0.7128064775287228
  0.3298238479203377  0.6036842454934330  0.2980966206559259
  0.5100378378663137  0.9622641791031157  0.8672339781265848
  0.4873830490600284  0.5353509128293226  0.1340457131447934
  0.4953322669991351  0.6613242937959498  0.7124980641349339
  0.5161175141606336  0.8389688640277200  0.3025145379682996
  0.1708397193350919  0.8388331936024542  0.0953141929057395
  0.8436543141673809  0.6571598534281193  0.9115636875026496
  0.1505296842632688  0.5374765806724398  0.9360329896799300
  0.8542064178128186  0.9552409646419235  0.0634729917220227
  0.3095017864842973  0.7732841853896275  0.9174494688288064
  0.6906335451170023  0.7273896931391377  0.0757334285562550
  0.0142923863335866  0.8167603662932237  0.8058936031992943
  0.9839160845665305  0.6806843105826061  0.2045950285856506
  0.3736462519769859  0.3962559448370939  0.5252688308867093
  0.6763009161788602  0.3940830837262084  0.7202854261246188

  0.00000000E+00  0.00000000E+00  0.00000000E+00
  0.00000000E+00  0.00000000E+00  0.00000000E+00
  0.00000000E+00  0.00000000E+00  0.00000000E+00
  0.00000000E+00  0.00000000E+00  0.00000000E+00
  0.00000000E+00  0.00000000E+00  0.00000000E+00
  0.00000000E+00  0.00000000E+00  0.00000000E+00
  0.00000000E+00  0.00000000E+00  0.00000000E+00
  0.00000000E+00  0.00000000E+00  0.00000000E+00
  0.00000000E+00  0.00000000E+00  0.00000000E+00
  0.00000000E+00  0.00000000E+00  0.00000000E+00
  0.00000000E+00  0.00000000E+00  0.00000000E+00
  0.00000000E+00  0.00000000E+00  0.00000000E+00
  0.00000000E+00  0.00000000E+00  0.00000000E+00
  0.00000000E+00  0.00000000E+00  0.00000000E+00
  0.00000000E+00  0.00000000E+00  0.00000000E+00
  0.00000000E+00  0.00000000E+00  0.00000000E+00
  0.00000000E+00  0.00000000E+00  0.00000000E+00
  0.00000000E+00  0.00000000E+00  0.00000000E+00
  0.00000000E+00  0.00000000E+00  0.00000000E+00
  0.00000000E+00  0.00000000E+00  0.00000000E+00
  0.00000000E+00  0.00000000E+00  0.00000000E+00
  0.00000000E+00  0.00000000E+00  0.00000000E+00
  0.00000000E+00  0.00000000E+00  0.00000000E+00
  0.00000000E+00  0.00000000E+00  0.00000000E+00
  0.00000000E+00  0.00000000E+00  0.00000000E+00
  0.00000000E+00  0.00000000E+00  0.00000000E+00
  0.00000000E+00  0.00000000E+00  0.00000000E+00
  0.00000000E+00  0.00000000E+00  0.00000000E+00
  0.00000000E+00  0.00000000E+00  0.00000000E+00
  0.00000000E+00  0.00000000E+00  0.00000000E+00
  0.00000000E+00  0.00000000E+00  0.00000000E+00
  0.00000000E+00  0.00000000E+00  0.00000000E+00
  0.00000000E+00  0.00000000E+00  0.00000000E+00
  0.00000000E+00  0.00000000E+00  0.00000000E+00
  0.00000000E+00  0.00000000E+00  0.00000000E+00
  0.00000000E+00  0.00000000E+00  0.00000000E+00
  0.00000000E+00  0.00000000E+00  0.00000000E+00
  0.00000000E+00  0.00000000E+00  0.00000000E+00
  0.00000000E+00  0.00000000E+00  0.00000000E+00
  0.00000000E+00  0.00000000E+00  0.00000000E+00
  0.00000000E+00  0.00000000E+00  0.00000000E+00
  0.00000000E+00  0.00000000E+00  0.00000000E+00
  0.00000000E+00  0.00000000E+00  0.00000000E+00
  0.00000000E+00  0.00000000E+00  0.00000000E+00
  0.00000000E+00  0.00000000E+00  0.00000000E+00
  0.00000000E+00  0.00000000E+00  0.00000000E+00
  0.00000000E+00  0.00000000E+00  0.00000000E+00
  0.00000000E+00  0.00000000E+00  0.00000000E+00
  0.00000000E+00  0.00000000E+00  0.00000000E+00
  0.00000000E+00  0.00000000E+00  0.00000000E+00
  0.00000000E+00  0.00000000E+00  0.00000000E+00
  0.00000000E+00  0.00000000E+00  0.00000000E+00
  0.00000000E+00  0.00000000E+00  0.00000000E+00
  0.00000000E+00  0.00000000E+00  0.00000000E+00
  0.00000000E+00  0.00000000E+00  0.00000000E+00
  0.00000000E+00  0.00000000E+00  0.00000000E+00
  0.00000000E+00  0.00000000E+00  0.00000000E+00
  0.00000000E+00  0.00000000E+00  0.00000000E+00
  0.00000000E+00  0.00000000E+00  0.00000000E+00
  0.00000000E+00  0.00000000E+00  0.00000000E+00
  0.00000000E+00  0.00000000E+00  0.00000000E+00
  0.00000000E+00  0.00000000E+00  0.00000000E+00
  0.00000000E+00  0.00000000E+00  0.00000000E+00
  0.00000000E+00  0.00000000E+00  0.00000000E+00
  0.00000000E+00  0.00000000E+00  0.00000000E+00
  0.00000000E+00  0.00000000E+00  0.00000000E+00
  0.00000000E+00  0.00000000E+00  0.00000000E+00
  0.00000000E+00  0.00000000E+00  0.00000000E+00
  0.00000000E+00  0.00000000E+00  0.00000000E+00
  0.00000000E+00  0.00000000E+00  0.00000000E+00
  0.00000000E+00  0.00000000E+00  0.00000000E+00
  0.00000000E+00  0.00000000E+00  0.00000000E+00
  0.00000000E+00  0.00000000E+00  0.00000000E+00
  0.00000000E+00  0.00000000E+00  0.00000000E+00
  0.00000000E+00  0.00000000E+00  0.00000000E+00
  0.00000000E+00  0.00000000E+00  0.00000000E+00
  0.00000000E+00  0.00000000E+00  0.00000000E+00
  0.00000000E+00  0.00000000E+00  0.00000000E+00
  0.00000000E+00  0.00000000E+00  0.00000000E+00
  0.00000000E+00  0.00000000E+00  0.00000000E+00
  0.00000000E+00  0.00000000E+00  0.00000000E+00
  0.00000000E+00  0.00000000E+00  0.00000000E+00
  0.00000000E+00  0.00000000E+00  0.00000000E+00
  0.00000000E+00  0.00000000E+00  0.00000000E+00
