finalLLZO__19__18__19__16__19__1__19__23
   1.00000000000000     
    13.0219330000000006    0.0000000000000000    0.0000000000000000
     0.0000000000000000   13.0219330000000006    0.0000000000000000
     0.0000000000000000    0.0000000000000000   13.0219330000000006
   La   Li   O    r 
    24    56    95    16
Direct
  0.9992769922441553  0.2470035517195299  0.1277119971100333
  0.9937158160947703  0.2455998719209376  0.6328888330305773
  0.9992350064241933  0.7509415118943465  0.3805649763260561
  0.9982760721687640  0.7470679935805080  0.8689415945160306
  0.1236526844603532  0.9993037458005816  0.2499976969758038
  0.1302403060238433  0.4934504410251321  0.7506678238902111
  0.2491352898048049  0.1153783335827825  0.0039135667577810
  0.2571762634812984  0.3685998904634573  0.5013420513035527
  0.2474011428696627  0.6286998133259232  0.0013687098054618
  0.2451682090846035  0.8730653607620837  0.5037017590821407
  0.3758902388086511  0.9963708402062679  0.7524666844737240
  0.3656420385769152  0.4987254684512124  0.2518978791052007
  0.4966181875702134  0.2444260888140946  0.3663326333579064
  0.4952439509605924  0.2466710896663216  0.8843699544615831
  0.4961076325293661  0.7494247462218269  0.1338205827532164
  0.4986933738452919  0.7466389259172530  0.6204159919040535
  0.6255275158478639  0.9961649734664206  0.2503189473075622
  0.6158447776636535  0.4967393920336747  0.7522862307997187
  0.7507582880111627  0.1309965526786172  0.4975129655285144
  0.7469095854011343  0.3776409194570221  0.0034242162168283
  0.7460967533791063  0.6155249529722795  0.5000240873373940
  0.7473684410420844  0.8657522613790647  0.0010449497423721
  0.8662161917271973  0.9969518671854019  0.7506844377692516
  0.8811028422443954  0.4918303494687493  0.2533203636070240
  0.9989727092729979  0.2426627224431854  0.8775450750399401
  0.0020292800223132  0.7502837494923540  0.6280842730847311
  0.0853973842263329  0.0747469367013736  0.7961107707467363
  0.1184154360698244  0.4809918823559585  0.2594366450430243
  0.0825620547013202  0.9166680766131634  0.6871290466537729
  0.1509829788246435  0.1708955014917208  0.4324657442212896
  0.1568892889613096  0.3226941635117129  0.9379155079470394
  0.0672553052225666  0.6481152332072995  0.1771353971494207
  0.1590752143535639  0.6639709355363124  0.5655986825326096
  0.0848861791708941  0.8117786114852166  0.0763838689765137
  0.1787804827435124  0.5708225890687046  0.4028551599507963
  0.1761274187130866  0.9212648356125328  0.8581515946765066
  0.1887009025391535  0.0794691393694862  0.5966856309012272
  0.1795063959496872  0.4264674226663487  0.0914647272795222
  0.3366628240337661  0.6712953863115061  0.4362794609917344
  0.2587815974732806  0.8756608872697456  0.0217308429819596
  0.3222721443877390  0.5722469613675756  0.5942007653737207
  0.3139563760490063  0.0715499011421414  0.4093436881816501
  0.3136584167248486  0.4235301284827813  0.9087961033128735
  0.3870666283686433  0.1725416645340019  0.5701327896526323
  0.3376821369602254  0.3270233918845307  0.0689835828625718
  0.3789511191000088  0.0235181761993175  0.2212074716214403
  0.3755166841727089  0.4935949579618253  0.7505787520005995
  0.5013328146669096  0.7437543735129779  0.3784542587604847
  0.4085521030997370  0.8102968139615001  0.9237084932336685
  0.4882970868319134  0.2324607839253119  0.1293158828958667
  0.4368678304994873  0.3300057674378536  0.6714659042073308
  0.4325757479522707  0.6519255599386184  0.8272319379126287
  0.4153696922647043  0.8939834454310684  0.3295077205054469
  0.5539502283217317  0.1606723660372893  0.6705005800928845
  0.5695837843440117  0.3973334634243528  0.1810990313584711
  0.5644774037077411  0.8395975271677756  0.8261858489126226
  0.6556936158868751  0.1705151199783401  0.0683851031672091
  0.5996971279713179  0.3164955802513632  0.5731970080442039
  0.6210953044380929  0.9984148150461252  0.7505261694855321
  0.5754270497801883  0.5861979825267909  0.3132171456667336
  0.5877831172983576  0.6831853379590314  0.9263151580705653
  0.6589301087411314  0.8226540245329943  0.4353028813101858
  0.6731080918899295  0.5595277242614785  0.1600456038346607
  0.6834322370067341  0.9220040055970600  0.5926276542241737
  0.6772112518044935  0.0727312591312028  0.9103406255896758
  0.6699116874899573  0.4286916140375752  0.3376515685024231
  0.7629780695900124  0.3685041605430754  0.4914318555886723
  0.8149117662752374  0.9212980871881200  0.4081661250895721
  0.7487595501402353  0.6226759740698142  0.0015549923777272
  0.8138118734911117  0.0688624496096892  0.0921397652623810
  0.8195559752047998  0.4303810108970936  0.6594293095298838
  0.8354564901349733  0.1715024052399343  0.9385535248124199
  0.9789495198041109  0.2383881696719925  0.3664810377966248
  0.8802565083055711  0.0153962955914437  0.2605471793056466
  0.8228937608527858  0.5621905629887323  0.8426543656387793
  0.9104293373859349  0.6846704424736387  0.0797033887895680
  0.8406735544655604  0.8234966289729471  0.5665100102744134
  0.9192561930590912  0.4019613980136683  0.8192560808311384
  0.9231329717773775  0.5857962871286944  0.6888394654987664
  0.9284748709741066  0.8505877782530291  0.1750814925269566
  0.0314673093491038  0.0523759193103999  0.6540476692345862
  0.0346528384673945  0.4473068346564304  0.1445346922621980
  0.0331283600042624  0.5530948491286409  0.3563668555018040
  0.0289325690656526  0.9430593677868728  0.8443477774599657
  0.0542604583808739  0.1439231603801616  0.9682410754896154
  0.0495468396900449  0.6512737984004602  0.0291097872106292
  0.0538039684789382  0.8538097456198273  0.5398812079370288
  0.0986563748912488  0.1919340269805190  0.2879864528166109
  0.1025805627054197  0.3033384022781789  0.7898099564650494
  0.1045446656435871  0.6864754091356744  0.7132924672959291
  0.0957462591269902  0.8007523149370215  0.2218089088192272
  0.1489878125559727  0.0302696238055518  0.4533935916168872
  0.1498807102818276  0.4686657395294560  0.9472211091534959
  0.1496299987217853  0.5188107857549724  0.5496922871444951
  0.1423544485664223  0.9574951902172444  0.0501107537699923
  0.1871853081171722  0.2224799827616337  0.6030456010997725
  0.1919746215482903  0.2828824611613783  0.0998125797501785
  0.1928363255152803  0.7160978924483885  0.4064784919511766
  0.1920673812289593  0.7784523041794884  0.8972102561601929
  0.2260722588099640  0.0949177846073326  0.8079996914186651
  0.2236810677772567  0.3982068329210264  0.3129347994405762
  0.2095141432716474  0.6000398676313452  0.2021563236012796
  0.2237389431617984  0.8943597240409460  0.7029397339310108
  0.2651671261336546  0.1011494237036388  0.1911241320207040
  0.2880250250325886  0.3916429781656277  0.6965978810104190
  0.2863306996146946  0.5967132090862250  0.8076663400061435
  0.2729597936485391  0.8991686319751366  0.3126639099892898
  0.3018976210324524  0.2138975426433021  0.3983927175331559
  0.2998974195326838  0.2780975661827938  0.9048669948701829
  0.3008847361626934  0.7134721990945323  0.5977445416751053
  0.3057591478565271  0.7698643997425094  0.1056630269674557
  0.3503422378428596  0.0294986032699924  0.5547049439929168
  0.3435903054563809  0.4709260480896447  0.0527032306204163
  0.3493402940055006  0.5286980901966345  0.4523736414617616
  0.3527207543438706  0.9552178002808276  0.9437059075773959
  0.3991422788987506  0.1916291997795199  0.7172128102794915
  0.3928012156932539  0.3062079973494960  0.2132044058311351
  0.3933869408347945  0.6954376328233849  0.2917293232622100
  0.4033385173881143  0.7933172594223876  0.7794893661298090
  0.4390376467456463  0.1418340387701207  0.0279697685647378
  0.4484364197992434  0.3446646036236061  0.5272727996223665
  0.4470702661017185  0.6508703154358528  0.9718769907275870
  0.4446458189135711  0.8467944846670576  0.4683549251117043
  0.4606196988852247  0.0416218026989910  0.3512213929933452
  0.4628139877682926  0.4440842813539376  0.8559131656741243
  0.4644931576766353  0.5519914289584733  0.6472184077933250
  0.4753537975903441  0.9366295967132885  0.1534759572085420
  0.5336114330804804  0.0500448433214231  0.8556436742311817
  0.5269878898550289  0.4457148632427987  0.3472078251118589
  0.5271693532053803  0.5493560315937955  0.1549317631411924
  0.5343179790465626  0.9390673471405648  0.6481422734338480
  0.5477777878791770  0.1487491787021966  0.5259109417562300
  0.5493765269842612  0.3499879422735503  0.0365819496911257
  0.5584817405411115  0.6416733777605117  0.4651263448908409
  0.5515205693487744  0.8422167048984832  0.9709281807711747
  0.6011638568194897  0.1917283760013788  0.2134102558713309
  0.5905442026059760  0.2995328588327126  0.7209189141744545
  0.5956832747164071  0.6928752215954432  0.7802989783668721
  0.6048852579410564  0.8004227397650610  0.2903807836872545
  0.6506284935264404  0.0254411816735001  0.0523809719456878
  0.6473241690839444  0.4603064608019594  0.5560715840379871
  0.6441569293606264  0.5334456578931324  0.9475414230029742
  0.6514834860661693  0.9670588125771502  0.4504726182497976
  0.6915894158763507  0.2180417998130366  0.9056045692790917
  0.6891528355615009  0.2854980421605546  0.3941885299904584
  0.6940134642095757  0.7110457100634733  0.1056228140308946
  0.6954446532170238  0.7757517803980818  0.5973889693994394
  0.7102093859765546  0.1007143553210668  0.6953087593199569
  0.7154623735138372  0.3989528363936401  0.1947001243928383
  0.7202345212842332  0.5923897340356348  0.3013676394320086
  0.7114826137349937  0.8919934356342409  0.8053975546209671
  0.7735297425182068  0.0998192403056279  0.3101635244379182
  0.7735651979366409  0.4000306810545666  0.8047187903201092
  0.7769609722748285  0.5923997588611911  0.6986272806501148
  0.7841425476578792  0.8938130172514747  0.1953349250169580
  0.7983210724073544  0.2135754740738918  0.0962504832315574
  0.7955541002934794  0.2848231361959535  0.6077365211402821
  0.8044121059093001  0.7096843984400465  0.8951597359528449
  0.8024701891037864  0.7753286874426379  0.4059133747041841
  0.8443654625863672  0.0256164738313132  0.9461340620135488
  0.8511838343543872  0.4719701723803382  0.4448345727495919
  0.8514436054083205  0.5338108992498505  0.0552820093963291
  0.8453453080907138  0.9692817184349565  0.5534442151129753
  0.8904804659238366  0.1929376194307366  0.7875437222675075
  0.8965796347595543  0.3056741904699649  0.2681609080630309
  0.9035496260078091  0.6974199764631521  0.2240949135842314
  0.8927334901503912  0.8025619672108490  0.7137146982259495
  0.9459310895945379  0.1524454102832493  0.4824146754854226
  0.9403923741092299  0.3512470589010945  0.9654431324343733
  0.9469827929353158  0.6443349234194287  0.5416438359631357
  0.9440684770351595  0.8437251796124414  0.0279342774750901
  0.9626695334533721  0.0492542168322885  0.1445404324538231
  0.9675992947076324  0.4419795178866082  0.6509994964505879
  0.9683199273614989  0.5482936007177841  0.8447627638332378
  0.9635242413387957  0.9405803684866711  0.3568688787604515
  0.9979656086632360  0.9981370680189983  0.9972825915894745
  0.9973097660822177  0.0025159072122989  0.5014486040673987
  0.9975405205926364  0.4984689384226257  0.9987125224181739
  0.9945133593919238  0.5023985710396062  0.5016727843032953
  0.2439254947531211  0.2495277600841916  0.2508542815180732
  0.2478913309853823  0.2443065749864175  0.7527571346917483
  0.2467330907206815  0.7510499458119639  0.2518926590596777
  0.2507231389105655  0.7444589736157070  0.7504399281771938
  0.4964557974210777  0.9944814871511625  0.0049558083723511
  0.5011179787336957  0.9963485717588014  0.5012393868958114
  0.4965564001789673  0.4995038595176240  0.0038064927562615
  0.5006188935338969  0.4948788524912615  0.4985156934937507
  0.7507460703379536  0.2458714284188090  0.2498118548433226
  0.7421422331893197  0.2470838316150932  0.7529628683539613
  0.7514196847482140  0.7451038129134488  0.2518845857671508
  0.7466235032532040  0.7446066219623475  0.7489202583595969
 
  0.00000000E+00  0.00000000E+00  0.00000000E+00
  0.00000000E+00  0.00000000E+00  0.00000000E+00
  0.00000000E+00  0.00000000E+00  0.00000000E+00
  0.00000000E+00  0.00000000E+00  0.00000000E+00
  0.00000000E+00  0.00000000E+00  0.00000000E+00
  0.00000000E+00  0.00000000E+00  0.00000000E+00
  0.00000000E+00  0.00000000E+00  0.00000000E+00
  0.00000000E+00  0.00000000E+00  0.00000000E+00
  0.00000000E+00  0.00000000E+00  0.00000000E+00
  0.00000000E+00  0.00000000E+00  0.00000000E+00
  0.00000000E+00  0.00000000E+00  0.00000000E+00
  0.00000000E+00  0.00000000E+00  0.00000000E+00
  0.00000000E+00  0.00000000E+00  0.00000000E+00
  0.00000000E+00  0.00000000E+00  0.00000000E+00
  0.00000000E+00  0.00000000E+00  0.00000000E+00
  0.00000000E+00  0.00000000E+00  0.00000000E+00
  0.00000000E+00  0.00000000E+00  0.00000000E+00
  0.00000000E+00  0.00000000E+00  0.00000000E+00
  0.00000000E+00  0.00000000E+00  0.00000000E+00
  0.00000000E+00  0.00000000E+00  0.00000000E+00
  0.00000000E+00  0.00000000E+00  0.00000000E+00
  0.00000000E+00  0.00000000E+00  0.00000000E+00
  0.00000000E+00  0.00000000E+00  0.00000000E+00
  0.00000000E+00  0.00000000E+00  0.00000000E+00
  0.00000000E+00  0.00000000E+00  0.00000000E+00
  0.00000000E+00  0.00000000E+00  0.00000000E+00
  0.00000000E+00  0.00000000E+00  0.00000000E+00
  0.00000000E+00  0.00000000E+00  0.00000000E+00
  0.00000000E+00  0.00000000E+00  0.00000000E+00
  0.00000000E+00  0.00000000E+00  0.00000000E+00
  0.00000000E+00  0.00000000E+00  0.00000000E+00
  0.00000000E+00  0.00000000E+00  0.00000000E+00
  0.00000000E+00  0.00000000E+00  0.00000000E+00
  0.00000000E+00  0.00000000E+00  0.00000000E+00
  0.00000000E+00  0.00000000E+00  0.00000000E+00
  0.00000000E+00  0.00000000E+00  0.00000000E+00
  0.00000000E+00  0.00000000E+00  0.00000000E+00
  0.00000000E+00  0.00000000E+00  0.00000000E+00
  0.00000000E+00  0.00000000E+00  0.00000000E+00
  0.00000000E+00  0.00000000E+00  0.00000000E+00
  0.00000000E+00  0.00000000E+00  0.00000000E+00
  0.00000000E+00  0.00000000E+00  0.00000000E+00
  0.00000000E+00  0.00000000E+00  0.00000000E+00
  0.00000000E+00  0.00000000E+00  0.00000000E+00
  0.00000000E+00  0.00000000E+00  0.00000000E+00
  0.00000000E+00  0.00000000E+00  0.00000000E+00
  0.00000000E+00  0.00000000E+00  0.00000000E+00
  0.00000000E+00  0.00000000E+00  0.00000000E+00
  0.00000000E+00  0.00000000E+00  0.00000000E+00
  0.00000000E+00  0.00000000E+00  0.00000000E+00
  0.00000000E+00  0.00000000E+00  0.00000000E+00
  0.00000000E+00  0.00000000E+00  0.00000000E+00
  0.00000000E+00  0.00000000E+00  0.00000000E+00
  0.00000000E+00  0.00000000E+00  0.00000000E+00
  0.00000000E+00  0.00000000E+00  0.00000000E+00
  0.00000000E+00  0.00000000E+00  0.00000000E+00
  0.00000000E+00  0.00000000E+00  0.00000000E+00
  0.00000000E+00  0.00000000E+00  0.00000000E+00
  0.00000000E+00  0.00000000E+00  0.00000000E+00
  0.00000000E+00  0.00000000E+00  0.00000000E+00
  0.00000000E+00  0.00000000E+00  0.00000000E+00
  0.00000000E+00  0.00000000E+00  0.00000000E+00
  0.00000000E+00  0.00000000E+00  0.00000000E+00
  0.00000000E+00  0.00000000E+00  0.00000000E+00
  0.00000000E+00  0.00000000E+00  0.00000000E+00
  0.00000000E+00  0.00000000E+00  0.00000000E+00
  0.00000000E+00  0.00000000E+00  0.00000000E+00
  0.00000000E+00  0.00000000E+00  0.00000000E+00
  0.00000000E+00  0.00000000E+00  0.00000000E+00
  0.00000000E+00  0.00000000E+00  0.00000000E+00
  0.00000000E+00  0.00000000E+00  0.00000000E+00
  0.00000000E+00  0.00000000E+00  0.00000000E+00
  0.00000000E+00  0.00000000E+00  0.00000000E+00
  0.00000000E+00  0.00000000E+00  0.00000000E+00
  0.00000000E+00  0.00000000E+00  0.00000000E+00
  0.00000000E+00  0.00000000E+00  0.00000000E+00
  0.00000000E+00  0.00000000E+00  0.00000000E+00
  0.00000000E+00  0.00000000E+00  0.00000000E+00
  0.00000000E+00  0.00000000E+00  0.00000000E+00
  0.00000000E+00  0.00000000E+00  0.00000000E+00
  0.00000000E+00  0.00000000E+00  0.00000000E+00
  0.00000000E+00  0.00000000E+00  0.00000000E+00
  0.00000000E+00  0.00000000E+00  0.00000000E+00
  0.00000000E+00  0.00000000E+00  0.00000000E+00
  0.00000000E+00  0.00000000E+00  0.00000000E+00
  0.00000000E+00  0.00000000E+00  0.00000000E+00
  0.00000000E+00  0.00000000E+00  0.00000000E+00
  0.00000000E+00  0.00000000E+00  0.00000000E+00
  0.00000000E+00  0.00000000E+00  0.00000000E+00
  0.00000000E+00  0.00000000E+00  0.00000000E+00
  0.00000000E+00  0.00000000E+00  0.00000000E+00
  0.00000000E+00  0.00000000E+00  0.00000000E+00
  0.00000000E+00  0.00000000E+00  0.00000000E+00
  0.00000000E+00  0.00000000E+00  0.00000000E+00
  0.00000000E+00  0.00000000E+00  0.00000000E+00
  0.00000000E+00  0.00000000E+00  0.00000000E+00
  0.00000000E+00  0.00000000E+00  0.00000000E+00
  0.00000000E+00  0.00000000E+00  0.00000000E+00
  0.00000000E+00  0.00000000E+00  0.00000000E+00
  0.00000000E+00  0.00000000E+00  0.00000000E+00
  0.00000000E+00  0.00000000E+00  0.00000000E+00
  0.00000000E+00  0.00000000E+00  0.00000000E+00
  0.00000000E+00  0.00000000E+00  0.00000000E+00
  0.00000000E+00  0.00000000E+00  0.00000000E+00
  0.00000000E+00  0.00000000E+00  0.00000000E+00
  0.00000000E+00  0.00000000E+00  0.00000000E+00
  0.00000000E+00  0.00000000E+00  0.00000000E+00
  0.00000000E+00  0.00000000E+00  0.00000000E+00
  0.00000000E+00  0.00000000E+00  0.00000000E+00
  0.00000000E+00  0.00000000E+00  0.00000000E+00
  0.00000000E+00  0.00000000E+00  0.00000000E+00
  0.00000000E+00  0.00000000E+00  0.00000000E+00
  0.00000000E+00  0.00000000E+00  0.00000000E+00
  0.00000000E+00  0.00000000E+00  0.00000000E+00
  0.00000000E+00  0.00000000E+00  0.00000000E+00
  0.00000000E+00  0.00000000E+00  0.00000000E+00
  0.00000000E+00  0.00000000E+00  0.00000000E+00
  0.00000000E+00  0.00000000E+00  0.00000000E+00
  0.00000000E+00  0.00000000E+00  0.00000000E+00
  0.00000000E+00  0.00000000E+00  0.00000000E+00
  0.00000000E+00  0.00000000E+00  0.00000000E+00
  0.00000000E+00  0.00000000E+00  0.00000000E+00
  0.00000000E+00  0.00000000E+00  0.00000000E+00
  0.00000000E+00  0.00000000E+00  0.00000000E+00
  0.00000000E+00  0.00000000E+00  0.00000000E+00
  0.00000000E+00  0.00000000E+00  0.00000000E+00
  0.00000000E+00  0.00000000E+00  0.00000000E+00
  0.00000000E+00  0.00000000E+00  0.00000000E+00
  0.00000000E+00  0.00000000E+00  0.00000000E+00
  0.00000000E+00  0.00000000E+00  0.00000000E+00
  0.00000000E+00  0.00000000E+00  0.00000000E+00
  0.00000000E+00  0.00000000E+00  0.00000000E+00
  0.00000000E+00  0.00000000E+00  0.00000000E+00
  0.00000000E+00  0.00000000E+00  0.00000000E+00
  0.00000000E+00  0.00000000E+00  0.00000000E+00
  0.00000000E+00  0.00000000E+00  0.00000000E+00
  0.00000000E+00  0.00000000E+00  0.00000000E+00
  0.00000000E+00  0.00000000E+00  0.00000000E+00
  0.00000000E+00  0.00000000E+00  0.00000000E+00
  0.00000000E+00  0.00000000E+00  0.00000000E+00
  0.00000000E+00  0.00000000E+00  0.00000000E+00
  0.00000000E+00  0.00000000E+00  0.00000000E+00
  0.00000000E+00  0.00000000E+00  0.00000000E+00
  0.00000000E+00  0.00000000E+00  0.00000000E+00
  0.00000000E+00  0.00000000E+00  0.00000000E+00
  0.00000000E+00  0.00000000E+00  0.00000000E+00
  0.00000000E+00  0.00000000E+00  0.00000000E+00
  0.00000000E+00  0.00000000E+00  0.00000000E+00
  0.00000000E+00  0.00000000E+00  0.00000000E+00
  0.00000000E+00  0.00000000E+00  0.00000000E+00
  0.00000000E+00  0.00000000E+00  0.00000000E+00
  0.00000000E+00  0.00000000E+00  0.00000000E+00
  0.00000000E+00  0.00000000E+00  0.00000000E+00
  0.00000000E+00  0.00000000E+00  0.00000000E+00
  0.00000000E+00  0.00000000E+00  0.00000000E+00
  0.00000000E+00  0.00000000E+00  0.00000000E+00
  0.00000000E+00  0.00000000E+00  0.00000000E+00
  0.00000000E+00  0.00000000E+00  0.00000000E+00
  0.00000000E+00  0.00000000E+00  0.00000000E+00
  0.00000000E+00  0.00000000E+00  0.00000000E+00
  0.00000000E+00  0.00000000E+00  0.00000000E+00
  0.00000000E+00  0.00000000E+00  0.00000000E+00
  0.00000000E+00  0.00000000E+00  0.00000000E+00
  0.00000000E+00  0.00000000E+00  0.00000000E+00
  0.00000000E+00  0.00000000E+00  0.00000000E+00
  0.00000000E+00  0.00000000E+00  0.00000000E+00
  0.00000000E+00  0.00000000E+00  0.00000000E+00
  0.00000000E+00  0.00000000E+00  0.00000000E+00
  0.00000000E+00  0.00000000E+00  0.00000000E+00
  0.00000000E+00  0.00000000E+00  0.00000000E+00
  0.00000000E+00  0.00000000E+00  0.00000000E+00
  0.00000000E+00  0.00000000E+00  0.00000000E+00
  0.00000000E+00  0.00000000E+00  0.00000000E+00
  0.00000000E+00  0.00000000E+00  0.00000000E+00
  0.00000000E+00  0.00000000E+00  0.00000000E+00
  0.00000000E+00  0.00000000E+00  0.00000000E+00
  0.00000000E+00  0.00000000E+00  0.00000000E+00
  0.00000000E+00  0.00000000E+00  0.00000000E+00
  0.00000000E+00  0.00000000E+00  0.00000000E+00
  0.00000000E+00  0.00000000E+00  0.00000000E+00
  0.00000000E+00  0.00000000E+00  0.00000000E+00
  0.00000000E+00  0.00000000E+00  0.00000000E+00
  0.00000000E+00  0.00000000E+00  0.00000000E+00
  0.00000000E+00  0.00000000E+00  0.00000000E+00
  0.00000000E+00  0.00000000E+00  0.00000000E+00
  0.00000000E+00  0.00000000E+00  0.00000000E+00
  0.00000000E+00  0.00000000E+00  0.00000000E+00
  0.00000000E+00  0.00000000E+00  0.00000000E+00
  0.00000000E+00  0.00000000E+00  0.00000000E+00
  0.00000000E+00  0.00000000E+00  0.00000000E+00
  0.00000000E+00  0.00000000E+00  0.00000000E+00
