ISTART=1
ENCUT=500
EDIFF=1e-6
EDIFFG=-1e-2
IBRION=2
NSW=0
ISIF=0
PREC=Accurate
LREAL=AUTO
LPLANE=.TRUE.
ISMEAR=-5
NEDOS = 4000
LORBIT = 11
NELM=300
NCORE=40
NPAR=160
NELECT=1081
ISPIN=2
LHFCALC=.TRUE.
HFSCREEN=0.2
PRECFOCK=normal
LVHAR=.TRUE.
LVTOT=.TRUE.
