OUTCAR                                  
   1.00000000000000     
    13.0219330000000006    0.0000000000000000    0.0000000000000000
     0.0000000000000000   13.0219330000000006    0.0000000000000000
     0.0000000000000000    0.0000000000000000   13.0219330000000006
   La   Li   O    r 
    24    56    96    16
Direct
  0.9982778422352538  0.2445282556004642  0.1277189088650772
  0.9956033206035357  0.2507372722481236  0.6251451198055804
  0.9986838955163435  0.7492657464933501  0.3787873765788419
  0.9986098090423283  0.7463289665986963  0.8688166915333397
  0.1222295920933618  0.9998817546025620  0.2514304511596421
  0.1301855934359679  0.4954728331195568  0.7493773276282951
  0.2495731439505917  0.1143482813802734  0.0037939386533736
  0.2473299170785950  0.3736616573297269  0.4989297642912547
  0.2485161442754773  0.6286426639347908  0.0012482517827124
  0.2453310783112386  0.8745315729139023  0.5030236491743736
  0.3762709540973219  0.9970925744317114  0.7518898270752814
  0.3685238512008695  0.4980950749964279  0.2512595927951580
  0.4970238984415190  0.2457431028247825  0.3706432310493000
  0.4961711254450094  0.2474756820784734  0.8839520521826358
  0.4960220280182170  0.7511763512655349  0.1336578901375773
  0.4994395335432529  0.7472214399446955  0.6194651501153174
  0.6246759641625843  0.9989618513406668  0.2500871779755371
  0.6161177841118715  0.4973824353083742  0.7516269383745211
  0.7501282736829751  0.1314958777551212  0.4982115325428893
  0.7481826857894589  0.3785024343053536  0.0025901626775280
  0.7492426011504492  0.6158275580568571  0.5002733684262921
  0.7474992152246429  0.8659561886925147  0.0009735023475699
  0.8669248611070657  0.9984998285792983  0.7502976825655878
  0.8750604785592060  0.4954777964876271  0.2520863535960416
  0.0009539591593182  0.2435886386129695  0.8761695574822426
  0.0036448511734619  0.7484267147019708  0.6251309929980096
  0.0840254412299899  0.0763768322513485  0.7969537351246885
  0.0832963015656176  0.4111227776803830  0.3003296272473648
  0.0806636642545584  0.9141293452408235  0.6860311207318759
  0.1507396707013982  0.1742993247657409  0.4333861191842772
  0.1609399537525462  0.3249000013209766  0.9450578437354267
  0.0782313031072022  0.5932600422154550  0.1853960859985548
  0.1613633541077633  0.6622073259336219  0.5512546338232340
  0.0807906103193758  0.8001354504145155  0.0836333735503274
  0.1742163088940600  0.5727867507682873  0.3540559958113292
  0.1760304209940173  0.9226890399882421  0.8545096238896051
  0.1773076089081513  0.0749997443453694  0.6036021607994755
  0.1775573376378574  0.4272434322058771  0.1085072586412679
  0.3318562840094330  0.6692414353280611  0.4334998177892473
  0.2556229989700682  0.8742385334598950  0.0166529419775401
  0.3193873781292709  0.5727836519324612  0.5928539614241473
  0.3154591971929364  0.0685698523815930  0.4029394192375193
  0.3144407928272557  0.4250461474105620  0.9089288682530281
  0.3465511601359950  0.1706007044940705  0.5672399203700920
  0.3372494734528360  0.3278147126050115  0.0670159669351236
  0.3748057161023013  0.0153091515553925  0.2234583660069518
  0.3758074973995420  0.4939422500522710  0.7495554203301822
  0.5019175136230061  0.7434187787708666  0.3795879180855195
  0.4087389454558448  0.8110458751260410  0.9223675259633310
  0.4885793730474148  0.2312962835028216  0.1302161967836355
  0.4325930296186513  0.3282564318982679  0.6670426661286228
  0.4331925714405571  0.6527642093475023  0.8262809639113229
  0.4201955199176481  0.8897935847715459  0.3314710657233562
  0.5429899437687524  0.1671880932140581  0.6654985687090686
  0.5708837217911480  0.3943341772615838  0.1802935797979899
  0.5658100541055404  0.8407279365853739  0.8255764138324224
  0.6581636784366509  0.1719884746503055  0.0684813830968451
  0.6019286349808084  0.3190374122229187  0.5745164690307476
  0.6213623344941581  0.0015728181609944  0.7499506654028281
  0.5762308331499497  0.5864530611835903  0.3147180524637392
  0.5892137326644260  0.6836166443419174  0.9267661410730881
  0.6564351125338774  0.8227603385205313  0.4362437132182535
  0.6707569726056519  0.5629386081422183  0.1581428471583379
  0.6851120938731654  0.9227460654526993  0.5928264646200674
  0.6781967836987874  0.0735893461601904  0.9107627802107388
  0.6695498013947159  0.4286691438893016  0.3377592447926858
  0.7635150200448066  0.3701741186176619  0.4917074670452592
  0.8113826445060397  0.9213441347224673  0.4106960233551789
  0.7523206279187491  0.6239384515271311  0.0023866389396474
  0.8143664837766238  0.0681957015369292  0.0921938814923422
  0.8192648297667233  0.4322790687695885  0.6601065588347552
  0.8387552248524770  0.1709946024874753  0.9374761540942131
  0.9823047938547020  0.2486731725870186  0.3762981315835958
  0.8792288409183158  0.0176159387463528  0.2624304850667158
  0.8249334843448395  0.5622694992514283  0.8403483892572794
  0.9196761152332584  0.6864601422677055  0.0860049093805699
  0.8415849349481093  0.8226959840185728  0.5670498959348009
  0.9208009254382787  0.4022695699638490  0.8174005031842881
  0.9239172324008464  0.5885514468896744  0.6807620265458709
  0.9266406486169672  0.8560381640419266  0.1772810664450191
  0.0323983708207720  0.0521564051950421  0.6533171345704076
  0.0356748758420764  0.4482940186771955  0.1488870248001604
  0.0324131085851107  0.5480721907210011  0.3500632345989914
  0.0289303607533142  0.9426881734638286  0.8446301494816524
  0.0529179525749939  0.1431527344715775  0.9680260557973952
  0.0569614196645460  0.3474840053776020  0.4697008765721975
  0.0537497857670175  0.6484397709180314  0.0342482273412372
  0.0547474683695697  0.8540407158086794  0.5386668485559554
  0.0993316863548657  0.1989744576750638  0.2868272689523153
  0.1028613778061143  0.3045221290155595  0.7877997332412292
  0.1024836340793627  0.6889117540755834  0.7168058778235249
  0.0984878253907695  0.8127373530927855  0.2263269031959609
  0.1459641147017834  0.0312624175395584  0.4513092435411252
  0.1517789585551483  0.4693059961303376  0.9507067242363405
  0.1507916167625467  0.5207542431755385  0.5606479365716410
  0.1441444133614738  0.9601497690909326  0.0494265178723694
  0.1960407703833127  0.2161781512200136  0.6036609639226427
  0.1931259216899477  0.2824274288573250  0.0994492411836276
  0.1915059739313136  0.7153220459224130  0.4017914609601050
  0.1932926595851612  0.7795624501105110  0.8962669966335142
  0.2254399541708736  0.0950341812723394  0.8098457538225432
  0.2239774490291708  0.3983362037538711  0.3092028846185642
  0.2180538200804492  0.6040863701224808  0.2059072125089685
  0.2230754430768442  0.8955698550930293  0.7017598007892545
  0.2660830123937856  0.1001842654120608  0.1922518964749997
  0.2883766136386470  0.3912554639096868  0.6970683579262555
  0.2864943418852093  0.5977480524329124  0.8066125962486907
  0.2778517118452370  0.9046999101305460  0.3132640792675474
  0.3021144765868442  0.2130466981872701  0.3993633047602145
  0.3018805661308761  0.2794526528746744  0.9058739008077623
  0.2989171005666620  0.7149574119154920  0.5949264317348337
  0.3055408520604814  0.7722169007288784  0.1034033439940956
  0.3497127982353874  0.0271215615496558  0.5524036983918776
  0.3458122803990875  0.4718286661546784  0.0532735628760577
  0.3501504878160517  0.5282394323674211  0.4509126828175951
  0.3533373165225768  0.9556812616330177  0.9424412536864537
  0.3976459201322626  0.1907556716122514  0.7155478105132005
  0.3944389773699370  0.3070691130247525  0.2130773464496940
  0.3945787610069331  0.7032354857929661  0.2918391993950848
  0.4031355862886201  0.7938247677380943  0.7775454574271805
  0.4389950584678317  0.1425699896184796  0.0275855494386192
  0.4511919516765772  0.3460606511208226  0.5262615243745543
  0.4479267867497114  0.6516010308024391  0.9713272943871090
  0.4483544382527853  0.8475912292731564  0.4698581777023563
  0.4625768158012988  0.0424830405646119  0.3512108426136393
  0.4637100386808370  0.4460438116798713  0.8559363037193961
  0.4639868400249227  0.5539021860923441  0.6469735409970596
  0.4757713278979310  0.9375741002751923  0.1525120917106122
  0.5340006858560713  0.0515768654290696  0.8556260157339395
  0.5280863175285901  0.4465277957431084  0.3474484869600758
  0.5268714428385195  0.5502200582894758  0.1552505677805271
  0.5344731615110163  0.9422808296829714  0.6488117585465574
  0.5558601418189966  0.1492284027635975  0.5229523000403162
  0.5507010383908124  0.3504394929941199  0.0355438356128914
  0.5601944198040485  0.6421860496751393  0.4648028625667635
  0.5520122984132172  0.8435234684272217  0.9700449481923528
  0.6033569225457924  0.1944559164498401  0.2128647932782215
  0.5905839686446726  0.2995287528072055  0.7215262273089493
  0.5964815298925004  0.6929396006214361  0.7806919041108245
  0.6030904682479985  0.8037196014717196  0.2902019141377679
  0.6507511083829911  0.0268828672304409  0.0519960323307274
  0.6477668455458883  0.4616934156436088  0.5585585691574622
  0.6459164027436444  0.5342565056738522  0.9491788309327944
  0.6525264844265877  0.9670726895150423  0.4506173772553552
  0.6933384141541410  0.2187137570285316  0.9063158973194803
  0.6907427951520262  0.2877234387119714  0.3941623217708141
  0.6922482374725618  0.7122099448489578  0.1054168605884058
  0.6951311205529151  0.7766753964112638  0.5986121423191619
  0.7134103889342995  0.1007145008955845  0.6963460829242507
  0.7160113896864786  0.3997860087130078  0.1941894982188117
  0.7188385068101439  0.5940126347760284  0.2995513076722602
  0.7119420903193543  0.8926206376949040  0.8053031960912094
  0.7729976278630986  0.1014022955792271  0.3100764922387000
  0.7740746480873781  0.4010604986665385  0.8053751514713809
  0.7783263421096791  0.5931475476733397  0.6980247916582272
  0.7821119243296408  0.8960432548359165  0.1935950695713942
  0.8016628885754145  0.2137326210031532  0.0974675857415122
  0.7959879126116505  0.2863543577669674  0.6078157778246265
  0.8052461070809116  0.7101512125483040  0.8948225284164195
  0.7987204608747120  0.7761664465833746  0.4062544897138380
  0.8451804667841074  0.0246753306209229  0.9470817411613766
  0.8506486793381782  0.4733559627301815  0.4443938732743788
  0.8533230579056905  0.5339328283763436  0.0569505974610536
  0.8446074277110824  0.9680751698160748  0.5554307143819912
  0.8912048578727934  0.1935451454403605  0.7877390043605175
  0.8989569090058112  0.3091299673964656  0.2693031110455735
  0.9003972123606516  0.7016002159343273  0.2268831450775934
  0.8939082911657295  0.8016095520920459  0.7133188937350710
  0.9418111480172016  0.1504770810057394  0.4822963636017263
  0.9423966857507935  0.3510233242276044  0.9662825532362405
  0.9491914932326750  0.6444422258922842  0.5364428123568814
  0.9455677263783215  0.8418913066554836  0.0297996858211391
  0.9633652480622601  0.0481559226612731  0.1457146818572852
  0.9658491064999168  0.4434562175394774  0.6518695566055328
  0.9697562595136517  0.5482196107905750  0.8472826061466350
  0.9587196469444521  0.9406234251965344  0.3574915687051075
  0.9996853521503866  0.9961941500445164  0.9977034489426728
  0.9951458388413101  0.0017535438788343  0.5004715081916089
  0.9997831097833796  0.4973274777708241  0.9992304904336322
  0.9994023902796769  0.4935772582802755  0.4992131626711753
  0.2474709601589922  0.2474309392380007  0.2499758164353452
  0.2478283536977202  0.2453363097570218  0.7544751044366294
  0.2476268014043796  0.7569545619958973  0.2498901461623220
  0.2496602861000312  0.7447426115982694  0.7486100735669581
  0.4967653487264201  0.9954966452069414  0.0044362492255772
  0.5023398316117351  0.9989010514566559  0.5017580695681545
  0.4977933791366169  0.5003884379588754  0.0037138902838549
  0.5002879321985816  0.4953847809968934  0.4990521272927921
  0.7525383674449913  0.2471935724972596  0.2510098284161870
  0.7434201911287204  0.2468070417421018  0.7528202182793819
  0.7493149351604131  0.7479987816244602  0.2523685776783253
  0.7473494956528199  0.7453362543461921  0.7489091200867577
 
  0.00000000E+00  0.00000000E+00  0.00000000E+00
  0.00000000E+00  0.00000000E+00  0.00000000E+00
  0.00000000E+00  0.00000000E+00  0.00000000E+00
  0.00000000E+00  0.00000000E+00  0.00000000E+00
  0.00000000E+00  0.00000000E+00  0.00000000E+00
  0.00000000E+00  0.00000000E+00  0.00000000E+00
  0.00000000E+00  0.00000000E+00  0.00000000E+00
  0.00000000E+00  0.00000000E+00  0.00000000E+00
  0.00000000E+00  0.00000000E+00  0.00000000E+00
  0.00000000E+00  0.00000000E+00  0.00000000E+00
  0.00000000E+00  0.00000000E+00  0.00000000E+00
  0.00000000E+00  0.00000000E+00  0.00000000E+00
  0.00000000E+00  0.00000000E+00  0.00000000E+00
  0.00000000E+00  0.00000000E+00  0.00000000E+00
  0.00000000E+00  0.00000000E+00  0.00000000E+00
  0.00000000E+00  0.00000000E+00  0.00000000E+00
  0.00000000E+00  0.00000000E+00  0.00000000E+00
  0.00000000E+00  0.00000000E+00  0.00000000E+00
  0.00000000E+00  0.00000000E+00  0.00000000E+00
  0.00000000E+00  0.00000000E+00  0.00000000E+00
  0.00000000E+00  0.00000000E+00  0.00000000E+00
  0.00000000E+00  0.00000000E+00  0.00000000E+00
  0.00000000E+00  0.00000000E+00  0.00000000E+00
  0.00000000E+00  0.00000000E+00  0.00000000E+00
  0.00000000E+00  0.00000000E+00  0.00000000E+00
  0.00000000E+00  0.00000000E+00  0.00000000E+00
  0.00000000E+00  0.00000000E+00  0.00000000E+00
  0.00000000E+00  0.00000000E+00  0.00000000E+00
  0.00000000E+00  0.00000000E+00  0.00000000E+00
  0.00000000E+00  0.00000000E+00  0.00000000E+00
  0.00000000E+00  0.00000000E+00  0.00000000E+00
  0.00000000E+00  0.00000000E+00  0.00000000E+00
  0.00000000E+00  0.00000000E+00  0.00000000E+00
  0.00000000E+00  0.00000000E+00  0.00000000E+00
  0.00000000E+00  0.00000000E+00  0.00000000E+00
  0.00000000E+00  0.00000000E+00  0.00000000E+00
  0.00000000E+00  0.00000000E+00  0.00000000E+00
  0.00000000E+00  0.00000000E+00  0.00000000E+00
  0.00000000E+00  0.00000000E+00  0.00000000E+00
  0.00000000E+00  0.00000000E+00  0.00000000E+00
  0.00000000E+00  0.00000000E+00  0.00000000E+00
  0.00000000E+00  0.00000000E+00  0.00000000E+00
  0.00000000E+00  0.00000000E+00  0.00000000E+00
  0.00000000E+00  0.00000000E+00  0.00000000E+00
  0.00000000E+00  0.00000000E+00  0.00000000E+00
  0.00000000E+00  0.00000000E+00  0.00000000E+00
  0.00000000E+00  0.00000000E+00  0.00000000E+00
  0.00000000E+00  0.00000000E+00  0.00000000E+00
  0.00000000E+00  0.00000000E+00  0.00000000E+00
  0.00000000E+00  0.00000000E+00  0.00000000E+00
  0.00000000E+00  0.00000000E+00  0.00000000E+00
  0.00000000E+00  0.00000000E+00  0.00000000E+00
  0.00000000E+00  0.00000000E+00  0.00000000E+00
  0.00000000E+00  0.00000000E+00  0.00000000E+00
  0.00000000E+00  0.00000000E+00  0.00000000E+00
  0.00000000E+00  0.00000000E+00  0.00000000E+00
  0.00000000E+00  0.00000000E+00  0.00000000E+00
  0.00000000E+00  0.00000000E+00  0.00000000E+00
  0.00000000E+00  0.00000000E+00  0.00000000E+00
  0.00000000E+00  0.00000000E+00  0.00000000E+00
  0.00000000E+00  0.00000000E+00  0.00000000E+00
  0.00000000E+00  0.00000000E+00  0.00000000E+00
  0.00000000E+00  0.00000000E+00  0.00000000E+00
  0.00000000E+00  0.00000000E+00  0.00000000E+00
  0.00000000E+00  0.00000000E+00  0.00000000E+00
  0.00000000E+00  0.00000000E+00  0.00000000E+00
  0.00000000E+00  0.00000000E+00  0.00000000E+00
  0.00000000E+00  0.00000000E+00  0.00000000E+00
  0.00000000E+00  0.00000000E+00  0.00000000E+00
  0.00000000E+00  0.00000000E+00  0.00000000E+00
  0.00000000E+00  0.00000000E+00  0.00000000E+00
  0.00000000E+00  0.00000000E+00  0.00000000E+00
  0.00000000E+00  0.00000000E+00  0.00000000E+00
  0.00000000E+00  0.00000000E+00  0.00000000E+00
  0.00000000E+00  0.00000000E+00  0.00000000E+00
  0.00000000E+00  0.00000000E+00  0.00000000E+00
  0.00000000E+00  0.00000000E+00  0.00000000E+00
  0.00000000E+00  0.00000000E+00  0.00000000E+00
  0.00000000E+00  0.00000000E+00  0.00000000E+00
  0.00000000E+00  0.00000000E+00  0.00000000E+00
  0.00000000E+00  0.00000000E+00  0.00000000E+00
  0.00000000E+00  0.00000000E+00  0.00000000E+00
  0.00000000E+00  0.00000000E+00  0.00000000E+00
  0.00000000E+00  0.00000000E+00  0.00000000E+00
  0.00000000E+00  0.00000000E+00  0.00000000E+00
  0.00000000E+00  0.00000000E+00  0.00000000E+00
  0.00000000E+00  0.00000000E+00  0.00000000E+00
  0.00000000E+00  0.00000000E+00  0.00000000E+00
  0.00000000E+00  0.00000000E+00  0.00000000E+00
  0.00000000E+00  0.00000000E+00  0.00000000E+00
  0.00000000E+00  0.00000000E+00  0.00000000E+00
  0.00000000E+00  0.00000000E+00  0.00000000E+00
  0.00000000E+00  0.00000000E+00  0.00000000E+00
  0.00000000E+00  0.00000000E+00  0.00000000E+00
  0.00000000E+00  0.00000000E+00  0.00000000E+00
  0.00000000E+00  0.00000000E+00  0.00000000E+00
  0.00000000E+00  0.00000000E+00  0.00000000E+00
  0.00000000E+00  0.00000000E+00  0.00000000E+00
  0.00000000E+00  0.00000000E+00  0.00000000E+00
  0.00000000E+00  0.00000000E+00  0.00000000E+00
  0.00000000E+00  0.00000000E+00  0.00000000E+00
  0.00000000E+00  0.00000000E+00  0.00000000E+00
  0.00000000E+00  0.00000000E+00  0.00000000E+00
  0.00000000E+00  0.00000000E+00  0.00000000E+00
  0.00000000E+00  0.00000000E+00  0.00000000E+00
  0.00000000E+00  0.00000000E+00  0.00000000E+00
  0.00000000E+00  0.00000000E+00  0.00000000E+00
  0.00000000E+00  0.00000000E+00  0.00000000E+00
  0.00000000E+00  0.00000000E+00  0.00000000E+00
  0.00000000E+00  0.00000000E+00  0.00000000E+00
  0.00000000E+00  0.00000000E+00  0.00000000E+00
  0.00000000E+00  0.00000000E+00  0.00000000E+00
  0.00000000E+00  0.00000000E+00  0.00000000E+00
  0.00000000E+00  0.00000000E+00  0.00000000E+00
  0.00000000E+00  0.00000000E+00  0.00000000E+00
  0.00000000E+00  0.00000000E+00  0.00000000E+00
  0.00000000E+00  0.00000000E+00  0.00000000E+00
  0.00000000E+00  0.00000000E+00  0.00000000E+00
  0.00000000E+00  0.00000000E+00  0.00000000E+00
  0.00000000E+00  0.00000000E+00  0.00000000E+00
  0.00000000E+00  0.00000000E+00  0.00000000E+00
  0.00000000E+00  0.00000000E+00  0.00000000E+00
  0.00000000E+00  0.00000000E+00  0.00000000E+00
  0.00000000E+00  0.00000000E+00  0.00000000E+00
  0.00000000E+00  0.00000000E+00  0.00000000E+00
  0.00000000E+00  0.00000000E+00  0.00000000E+00
  0.00000000E+00  0.00000000E+00  0.00000000E+00
  0.00000000E+00  0.00000000E+00  0.00000000E+00
  0.00000000E+00  0.00000000E+00  0.00000000E+00
  0.00000000E+00  0.00000000E+00  0.00000000E+00
  0.00000000E+00  0.00000000E+00  0.00000000E+00
  0.00000000E+00  0.00000000E+00  0.00000000E+00
  0.00000000E+00  0.00000000E+00  0.00000000E+00
  0.00000000E+00  0.00000000E+00  0.00000000E+00
  0.00000000E+00  0.00000000E+00  0.00000000E+00
  0.00000000E+00  0.00000000E+00  0.00000000E+00
  0.00000000E+00  0.00000000E+00  0.00000000E+00
  0.00000000E+00  0.00000000E+00  0.00000000E+00
  0.00000000E+00  0.00000000E+00  0.00000000E+00
  0.00000000E+00  0.00000000E+00  0.00000000E+00
  0.00000000E+00  0.00000000E+00  0.00000000E+00
  0.00000000E+00  0.00000000E+00  0.00000000E+00
  0.00000000E+00  0.00000000E+00  0.00000000E+00
  0.00000000E+00  0.00000000E+00  0.00000000E+00
  0.00000000E+00  0.00000000E+00  0.00000000E+00
  0.00000000E+00  0.00000000E+00  0.00000000E+00
  0.00000000E+00  0.00000000E+00  0.00000000E+00
  0.00000000E+00  0.00000000E+00  0.00000000E+00
  0.00000000E+00  0.00000000E+00  0.00000000E+00
  0.00000000E+00  0.00000000E+00  0.00000000E+00
  0.00000000E+00  0.00000000E+00  0.00000000E+00
  0.00000000E+00  0.00000000E+00  0.00000000E+00
  0.00000000E+00  0.00000000E+00  0.00000000E+00
  0.00000000E+00  0.00000000E+00  0.00000000E+00
  0.00000000E+00  0.00000000E+00  0.00000000E+00
  0.00000000E+00  0.00000000E+00  0.00000000E+00
  0.00000000E+00  0.00000000E+00  0.00000000E+00
  0.00000000E+00  0.00000000E+00  0.00000000E+00
  0.00000000E+00  0.00000000E+00  0.00000000E+00
  0.00000000E+00  0.00000000E+00  0.00000000E+00
  0.00000000E+00  0.00000000E+00  0.00000000E+00
  0.00000000E+00  0.00000000E+00  0.00000000E+00
  0.00000000E+00  0.00000000E+00  0.00000000E+00
  0.00000000E+00  0.00000000E+00  0.00000000E+00
  0.00000000E+00  0.00000000E+00  0.00000000E+00
  0.00000000E+00  0.00000000E+00  0.00000000E+00
  0.00000000E+00  0.00000000E+00  0.00000000E+00
  0.00000000E+00  0.00000000E+00  0.00000000E+00
  0.00000000E+00  0.00000000E+00  0.00000000E+00
  0.00000000E+00  0.00000000E+00  0.00000000E+00
  0.00000000E+00  0.00000000E+00  0.00000000E+00
  0.00000000E+00  0.00000000E+00  0.00000000E+00
  0.00000000E+00  0.00000000E+00  0.00000000E+00
  0.00000000E+00  0.00000000E+00  0.00000000E+00
  0.00000000E+00  0.00000000E+00  0.00000000E+00
  0.00000000E+00  0.00000000E+00  0.00000000E+00
  0.00000000E+00  0.00000000E+00  0.00000000E+00
  0.00000000E+00  0.00000000E+00  0.00000000E+00
  0.00000000E+00  0.00000000E+00  0.00000000E+00
  0.00000000E+00  0.00000000E+00  0.00000000E+00
  0.00000000E+00  0.00000000E+00  0.00000000E+00
  0.00000000E+00  0.00000000E+00  0.00000000E+00
  0.00000000E+00  0.00000000E+00  0.00000000E+00
  0.00000000E+00  0.00000000E+00  0.00000000E+00
  0.00000000E+00  0.00000000E+00  0.00000000E+00
  0.00000000E+00  0.00000000E+00  0.00000000E+00
  0.00000000E+00  0.00000000E+00  0.00000000E+00
  0.00000000E+00  0.00000000E+00  0.00000000E+00
  0.00000000E+00  0.00000000E+00  0.00000000E+00
  0.00000000E+00  0.00000000E+00  0.00000000E+00
  0.00000000E+00  0.00000000E+00  0.00000000E+00
  0.00000000E+00  0.00000000E+00  0.00000000E+00
