ISTART=1
ENCUT=500
EDIFF=1e-6
EDIFFG=-1e-2
IBRION=2
NSW=0
ISIF=0
PREC=Accurate
LREAL=AUTO
NPAR=120
NCORE=40
NELM=300
LPLANE=.TRUE.
ISMEAR=-5
NEDOS=4000
LORBIT=11
LHFCALC=.TRUE.
HFSCREEN=0.2
PRECFOCK=normal
LVHAR=.TRUE.
LVTOT=.TRUE.
