La Li Li O Zr                           
   1.0000000000000000     
    13.0219330000000006    0.0000000000000000    0.0000000000000000
     0.0000000000000000   13.0219330000000006    0.0000000000000000
     0.0000000000000000    0.0000000000000000   13.0219330000000006
   La   Li   O    Zr
    24    56    96    16
Direct
  0.9966855695492569  0.2473869618275231  0.1279820370554603
  0.9979280146162992  0.2488440946959258  0.6275147499822040
  0.9979151648452174  0.7501041877169143  0.3802935146475548
  0.9899936515097139  0.7547587315838626  0.8701221236748182
  0.1143916292984528  0.0023110645814839  0.2546784916232312
  0.1284106922318600  0.5010870708153163  0.7516547971212546
  0.2481891776265996  0.1186167045069766  0.0018180564011772
  0.2447522712087320  0.3670144182495321  0.4992019085315249
  0.2486047916005845  0.6330181805538544  0.0019312515781138
  0.2464628026626698  0.8830539777577755  0.5004901137097661
  0.3809192535638175  0.0013123226908576  0.7510495001429973
  0.3703505842428214  0.4976465083378017  0.2502912111991833
  0.4979201315220223  0.2520025893228990  0.3728943243350358
  0.4988254231209410  0.2502467542358602  0.8843566867408867
  0.4980404595310333  0.7509183534141428  0.1325105508426176
  0.4946652167791683  0.7484124260900487  0.6187201952434833
  0.6296022385644804  0.9995374940132820  0.2516709715278296
  0.6135426040538903  0.4988701893938696  0.7517535003287250
  0.7506239332209006  0.1264737734250048  0.5022000182979554
  0.7463375821118490  0.3820902008928826  0.0047730890818016
  0.7446051439262220  0.6150040906031222  0.5005315650898083
  0.7528936564013122  0.8667872441394877  0.9931736504621114
  0.8670282109325314  0.9916586073617282  0.7566061700476254
  0.8743474296808245  0.5004193008187343  0.2522723288230608
  0.0012332443235863  0.2513304617516070  0.8780900327417385
  0.9985228976901226  0.7515637105221629  0.6245686610939174
  0.0750820721605407  0.0904043617017152  0.8159493285721950
  0.0859700840146047  0.4217240998694010  0.2970476094187333
  0.0771718157055901  0.9122730512291284  0.6834722668940643
  0.2310439485085851  0.1283245340985388  0.4907498234159320
  0.1611849176147615  0.3280657998236052  0.9417277737061340
  0.0847520434516582  0.5884108292691508  0.1957311130841362
  0.1544478320583167  0.6745697180032479  0.5631320288339126
  0.0755910780560640  0.7928150477381024  0.0888785740168743
  0.1824012631703198  0.5734310963281644  0.4004739256569962
  0.1751248215212229  0.9333763192788922  0.8438314699819074
  0.1762866905173226  0.0681116596516276  0.6613399511271751
  0.1812504331478237  0.4274589197824170  0.1033092818646750
  0.3365140280323686  0.6756687062536741  0.4337867377205100
  0.2450900495690433  0.8757348218507843  0.0045607039504745
  0.3077604902514537  0.5764596498984247  0.5900542550206538
  0.3278382406740121  0.0629365612962829  0.3375242771889475
  0.3168058378086016  0.4259072402862500  0.9133996958108099
  0.3925376311170012  0.1772715518173555  0.5728630145531923
  0.3388881198608473  0.3236514544733708  0.0688655717532569
  0.3254271055755780  0.9420952630448909  0.1637905031153650
  0.3709335629563100  0.4962045490856184  0.7491400770403018
  0.4964260357821644  0.7516873420001744  0.3785750963025549
  0.4054389055769860  0.8162155119140166  0.9242351384499798
  0.4269553775953483  0.1052663561115068  0.1792905449447630
  0.4591783018281319  0.3237683936442153  0.6626191598187887
  0.4306109617613103  0.6547991186487323  0.8261845321536256
  0.4232669124730393  0.9051229688401250  0.3182667329435205
  0.5658952339507479  0.1707655376643586  0.6659850514823802
  0.5103704782483263  0.2711536301229174  0.1337616122299323
  0.5617928421768781  0.8394309744574571  0.8246562695631710
  0.6564311999047021  0.1721813059030737  0.0703339547659709
  0.6876710799679842  0.3496506561741057  0.5339323614751734
  0.6209455033324645  0.0039545586319392  0.7503065789212542
  0.5690342959599164  0.5949067760305198  0.3253485013395760
  0.5899923209990376  0.6833719716263502  0.9250572421780987
  0.6573759364505634  0.8243706408635347  0.4384912503240841
  0.6557178171534801  0.5343991688723406  0.1785051482794202
  0.6786387102146847  0.9214396237670996  0.5957340066007859
  0.6839999971267829  0.0780315525834894  0.9123546090777026
  0.6651037623320519  0.4293946875768597  0.3354718856632957
  0.8491522151102302  0.3339803005794053  0.4314719253520707
  0.8149925172199133  0.9198732490362431  0.4057700489390896
  0.7476529313671136  0.6249650923884644  0.0095435598065379
  0.8137925390048650  0.0718087809943810  0.0893040443235478
  0.8227920852757933  0.4349099919095494  0.6558549752794960
  0.8436364016126205  0.1761315745051846  0.9350982457179811
  0.0048966739891227  0.2363447786629820  0.3773667501322464
  0.8753659882208424  0.0176375362238019  0.2619569417481671
  0.8219090343960858  0.5638111879799368  0.8415428348353799
  0.9184179534170340  0.6839146613326221  0.0892585247444515
  0.8360602929701457  0.8234400475712036  0.5639281085853938
  0.9205036841852063  0.4072916835852496  0.8179316782185708
  0.9214197379668292  0.5939285878769454  0.6817105752072337
  0.9246122523138425  0.8560421193433427  0.1816957091606852
  0.0302526235039764  0.0525027116036583  0.6554780824378952
  0.0366738149173926  0.4484473497586876  0.1508563095267306
  0.0377188077022126  0.5522455913191777  0.3519041937445166
  0.0312483315580963  0.9478266650877742  0.8472274450567667
  0.0522385985179312  0.1448384903706810  0.9663524922037894
  0.0496477385063656  0.3493010223045161  0.4734762724854562
  0.0532235262205205  0.6508578622219261  0.0360099832156209
  0.0531871271016655  0.8557141432820359  0.5399335790539013
  0.0968152816462151  0.1923501472243956  0.2698066518159266
  0.1053233234456457  0.3067499734240684  0.7908713560412295
  0.1020637752822893  0.6951727873490228  0.7133745101489808
  0.0952825007864035  0.8100639443521374  0.2293511006673725
  0.1425901369250795  0.0270241303053922  0.4433649713489274
  0.1530894529109119  0.4729913601659490  0.9508767684124848
  0.1516780005195741  0.5291199050608668  0.5529106280841987
  0.1455650488996341  0.9684820080049192  0.0552379013913651
  0.1965713443630435  0.2122818279470451  0.6080869840708445
  0.1951974775166221  0.2808982183259943  0.0970576302393624
  0.1930065016138229  0.7205940912072535  0.4034231247457072
  0.1949735940649049  0.7882390212841059  0.8963901748552559
  0.2216561862613702  0.0985742609615698  0.8059158189487476
  0.2232106871972661  0.3932120536785106  0.3099352435359108
  0.2248985993425663  0.6068879439823505  0.1913756611317723
  0.2207708829397106  0.9059387602544078  0.7005046682837772
  0.2802703794505632  0.0953141797520090  0.1950503633529905
  0.2783426612184883  0.3980170264536937  0.6957312013247545
  0.2832970732764579  0.6057075082441088  0.8065187654802273
  0.2784899211673562  0.9067845908697763  0.3048163030139364
  0.3071442133761551  0.2077328675772208  0.3944137206552227
  0.3041181651457592  0.2803660240211130  0.9059785513846492
  0.2969118776957913  0.7226113750017547  0.5964818404479644
  0.3043842655782996  0.7906886288960493  0.1062548024138295
  0.3489946675414473  0.0347426997827895  0.5562366074677314
  0.3466058532439291  0.4689259574635756  0.0549665001591180
  0.3413441610140708  0.5318108502394097  0.4487755511796720
  0.3524278277966957  0.9647362122419025  0.9455043590030385
  0.4036566044235528  0.1969529394230065  0.7197984372777455
  0.3931113760690295  0.3008633350603844  0.2132181054373703
  0.3927150521297733  0.7025937031200229  0.2911611545487034
  0.4013438929952429  0.8027572048469978  0.7783667857711478
  0.4461928067170859  0.1473168981621669  0.0360976860639681
  0.4329505614992186  0.3479379527379862  0.5243222089125297
  0.4443456581154592  0.6543430971737507  0.9712837451143344
  0.4402636496612331  0.8535110280429592  0.4664884400504761
  0.4709435599559768  0.0490902307087282  0.3476119500043424
  0.4592758066625393  0.4509429452910823  0.8573082407507187
  0.4540251565131896  0.5585452123696442  0.6482031785847440
  0.4706194224297349  0.9499150685143221  0.1533927514661499
  0.5352018556890314  0.0561556664317351  0.8560754417122354
  0.5247089079536948  0.4504813950604429  0.3542824394942983
  0.5188171818117766  0.5648115785529413  0.1545037283410551
  0.5324364149854972  0.9449442521321316  0.6477348860838958
  0.5446943003831137  0.1514283144117030  0.5258779910083007
  0.5566196750652850  0.3544925035413868  0.0269737188780894
  0.5482164249454442  0.6464370640872090  0.4657959818876876
  0.5480344184936712  0.8467936936649636  0.9695191088685959
  0.6039125312687119  0.1930293898682507  0.2140964934899259
  0.5945098539663149  0.3053153026250186  0.7285589701442774
  0.5916767116751060  0.6941479541386570  0.7786995694695733
  0.5998596575040764  0.8061162027384867  0.2904952560379783
  0.6536088408811196  0.0280185461957316  0.0519361129105960
  0.6365753812909745  0.4748936639413373  0.5661756071607869
  0.6440786857450789  0.5377880299833038  0.9506487807114894
  0.6499315797717244  0.9686752668864855  0.4532384090153982
  0.6993928316143396  0.2217507781118329  0.9077447599392059
  0.6969913319593530  0.2915306906461694  0.3981627011360729
  0.6915960143558308  0.7216302256764706  0.1050038928114461
  0.6904364604228874  0.7764585885386808  0.5965758037713087
  0.7093533352130095  0.1077015487265598  0.6957357594663023
  0.7253212488128113  0.4023879823022298  0.1964206825057673
  0.7123734927915990  0.5940047975290881  0.3039313452371175
  0.7050603666132886  0.8931199965085526  0.8008723139391662
  0.7717942949797845  0.1029616930891279  0.3127347763546737
  0.7753437047844116  0.4062645014082875  0.8058312223456952
  0.7760695966123521  0.5947374985286942  0.6961932364179191
  0.7846033251450635  0.8975609388837569  0.2068133335933098
  0.8037629260491599  0.2174253587872030  0.1016005342398714
  0.8006961011188949  0.2904515628319970  0.6065986192041777
  0.7965466703852400  0.7066033171472270  0.8937959611611888
  0.7966832489128848  0.7756867407837973  0.4075249448983769
  0.8458530348631470  0.0314565291249096  0.9485218165489400
  0.8513487332901661  0.4749829812305819  0.4446316094328253
  0.8549062684586843  0.5377770268048607  0.0586972404628625
  0.8437899849704991  0.9682820100692027  0.5531060763494438
  0.8944200574350347  0.2002942206874465  0.7888360035589912
  0.8983567245977540  0.3082313481117112  0.2856868981823482
  0.8962801628664181  0.6978174832643944  0.2292511041717304
  0.8901383518159776  0.7998918239726649  0.7088094983618376
  0.9364499331808815  0.1520671053647717  0.4838603380986513
  0.9433965508566757  0.3542783409127281  0.9677804598446187
  0.9471110645792038  0.6470076649934811  0.5365920539258724
  0.9466879614568882  0.8437962295191923  0.0361520677597440
  0.9591407983162696  0.0495092887755320  0.1457222764738759
  0.9687339258030718  0.4491728854140575  0.6542485608333095
  0.9682654620865492  0.5506202753870255  0.8493893391695764
  0.9586635294405852  0.9430436599625907  0.3573412753562053
  0.9989605044774947  0.9966868232782318  0.0005789965367029
  0.9959577506820239  0.0042936267289804  0.5022123435204264
  0.9999888757062365  0.5015174017669892  0.0002819379580572
  0.9999215462210671  0.4978820723170898  0.5013562509640721
  0.2456376268160696  0.2463723499988930  0.2512945809640996
  0.2517113334450372  0.2523716175906259  0.7532140326631520
  0.2460228733704923  0.7544771615117725  0.2516163100259448
  0.2477807076376095  0.7519923569838340  0.7494786172245327
  0.5007650796076604  0.9982328120823993  0.0027024647104241
  0.4983382953040518  0.0013984543092462  0.4994373856651677
  0.4977949955052523  0.5020837275711472  0.0064277428112760
  0.4904516123914107  0.4971904427141496  0.5033132235167770
  0.7521747281237126  0.2490669673703323  0.2515721373796040
  0.7470177493872825  0.2528525975403255  0.7542864779601217
  0.7458651689291500  0.7480569914402793  0.2522618644652397
  0.7438628217121064  0.7456075235069548  0.7475957231951398

  0.00000000E+00  0.00000000E+00  0.00000000E+00
  0.00000000E+00  0.00000000E+00  0.00000000E+00
  0.00000000E+00  0.00000000E+00  0.00000000E+00
  0.00000000E+00  0.00000000E+00  0.00000000E+00
  0.00000000E+00  0.00000000E+00  0.00000000E+00
  0.00000000E+00  0.00000000E+00  0.00000000E+00
  0.00000000E+00  0.00000000E+00  0.00000000E+00
  0.00000000E+00  0.00000000E+00  0.00000000E+00
  0.00000000E+00  0.00000000E+00  0.00000000E+00
  0.00000000E+00  0.00000000E+00  0.00000000E+00
  0.00000000E+00  0.00000000E+00  0.00000000E+00
  0.00000000E+00  0.00000000E+00  0.00000000E+00
  0.00000000E+00  0.00000000E+00  0.00000000E+00
  0.00000000E+00  0.00000000E+00  0.00000000E+00
  0.00000000E+00  0.00000000E+00  0.00000000E+00
  0.00000000E+00  0.00000000E+00  0.00000000E+00
  0.00000000E+00  0.00000000E+00  0.00000000E+00
  0.00000000E+00  0.00000000E+00  0.00000000E+00
  0.00000000E+00  0.00000000E+00  0.00000000E+00
  0.00000000E+00  0.00000000E+00  0.00000000E+00
  0.00000000E+00  0.00000000E+00  0.00000000E+00
  0.00000000E+00  0.00000000E+00  0.00000000E+00
  0.00000000E+00  0.00000000E+00  0.00000000E+00
  0.00000000E+00  0.00000000E+00  0.00000000E+00
  0.00000000E+00  0.00000000E+00  0.00000000E+00
  0.00000000E+00  0.00000000E+00  0.00000000E+00
  0.00000000E+00  0.00000000E+00  0.00000000E+00
  0.00000000E+00  0.00000000E+00  0.00000000E+00
  0.00000000E+00  0.00000000E+00  0.00000000E+00
  0.00000000E+00  0.00000000E+00  0.00000000E+00
  0.00000000E+00  0.00000000E+00  0.00000000E+00
  0.00000000E+00  0.00000000E+00  0.00000000E+00
  0.00000000E+00  0.00000000E+00  0.00000000E+00
  0.00000000E+00  0.00000000E+00  0.00000000E+00
  0.00000000E+00  0.00000000E+00  0.00000000E+00
  0.00000000E+00  0.00000000E+00  0.00000000E+00
  0.00000000E+00  0.00000000E+00  0.00000000E+00
  0.00000000E+00  0.00000000E+00  0.00000000E+00
  0.00000000E+00  0.00000000E+00  0.00000000E+00
  0.00000000E+00  0.00000000E+00  0.00000000E+00
  0.00000000E+00  0.00000000E+00  0.00000000E+00
  0.00000000E+00  0.00000000E+00  0.00000000E+00
  0.00000000E+00  0.00000000E+00  0.00000000E+00
  0.00000000E+00  0.00000000E+00  0.00000000E+00
  0.00000000E+00  0.00000000E+00  0.00000000E+00
  0.00000000E+00  0.00000000E+00  0.00000000E+00
  0.00000000E+00  0.00000000E+00  0.00000000E+00
  0.00000000E+00  0.00000000E+00  0.00000000E+00
  0.00000000E+00  0.00000000E+00  0.00000000E+00
  0.00000000E+00  0.00000000E+00  0.00000000E+00
  0.00000000E+00  0.00000000E+00  0.00000000E+00
  0.00000000E+00  0.00000000E+00  0.00000000E+00
  0.00000000E+00  0.00000000E+00  0.00000000E+00
  0.00000000E+00  0.00000000E+00  0.00000000E+00
  0.00000000E+00  0.00000000E+00  0.00000000E+00
  0.00000000E+00  0.00000000E+00  0.00000000E+00
  0.00000000E+00  0.00000000E+00  0.00000000E+00
  0.00000000E+00  0.00000000E+00  0.00000000E+00
  0.00000000E+00  0.00000000E+00  0.00000000E+00
  0.00000000E+00  0.00000000E+00  0.00000000E+00
  0.00000000E+00  0.00000000E+00  0.00000000E+00
  0.00000000E+00  0.00000000E+00  0.00000000E+00
  0.00000000E+00  0.00000000E+00  0.00000000E+00
  0.00000000E+00  0.00000000E+00  0.00000000E+00
  0.00000000E+00  0.00000000E+00  0.00000000E+00
  0.00000000E+00  0.00000000E+00  0.00000000E+00
  0.00000000E+00  0.00000000E+00  0.00000000E+00
  0.00000000E+00  0.00000000E+00  0.00000000E+00
  0.00000000E+00  0.00000000E+00  0.00000000E+00
  0.00000000E+00  0.00000000E+00  0.00000000E+00
  0.00000000E+00  0.00000000E+00  0.00000000E+00
  0.00000000E+00  0.00000000E+00  0.00000000E+00
  0.00000000E+00  0.00000000E+00  0.00000000E+00
  0.00000000E+00  0.00000000E+00  0.00000000E+00
  0.00000000E+00  0.00000000E+00  0.00000000E+00
  0.00000000E+00  0.00000000E+00  0.00000000E+00
  0.00000000E+00  0.00000000E+00  0.00000000E+00
  0.00000000E+00  0.00000000E+00  0.00000000E+00
  0.00000000E+00  0.00000000E+00  0.00000000E+00
  0.00000000E+00  0.00000000E+00  0.00000000E+00
  0.00000000E+00  0.00000000E+00  0.00000000E+00
  0.00000000E+00  0.00000000E+00  0.00000000E+00
  0.00000000E+00  0.00000000E+00  0.00000000E+00
  0.00000000E+00  0.00000000E+00  0.00000000E+00
  0.00000000E+00  0.00000000E+00  0.00000000E+00
  0.00000000E+00  0.00000000E+00  0.00000000E+00
  0.00000000E+00  0.00000000E+00  0.00000000E+00
  0.00000000E+00  0.00000000E+00  0.00000000E+00
  0.00000000E+00  0.00000000E+00  0.00000000E+00
  0.00000000E+00  0.00000000E+00  0.00000000E+00
  0.00000000E+00  0.00000000E+00  0.00000000E+00
  0.00000000E+00  0.00000000E+00  0.00000000E+00
  0.00000000E+00  0.00000000E+00  0.00000000E+00
  0.00000000E+00  0.00000000E+00  0.00000000E+00
  0.00000000E+00  0.00000000E+00  0.00000000E+00
  0.00000000E+00  0.00000000E+00  0.00000000E+00
  0.00000000E+00  0.00000000E+00  0.00000000E+00
  0.00000000E+00  0.00000000E+00  0.00000000E+00
  0.00000000E+00  0.00000000E+00  0.00000000E+00
  0.00000000E+00  0.00000000E+00  0.00000000E+00
  0.00000000E+00  0.00000000E+00  0.00000000E+00
  0.00000000E+00  0.00000000E+00  0.00000000E+00
  0.00000000E+00  0.00000000E+00  0.00000000E+00
  0.00000000E+00  0.00000000E+00  0.00000000E+00
  0.00000000E+00  0.00000000E+00  0.00000000E+00
  0.00000000E+00  0.00000000E+00  0.00000000E+00
  0.00000000E+00  0.00000000E+00  0.00000000E+00
  0.00000000E+00  0.00000000E+00  0.00000000E+00
  0.00000000E+00  0.00000000E+00  0.00000000E+00
  0.00000000E+00  0.00000000E+00  0.00000000E+00
  0.00000000E+00  0.00000000E+00  0.00000000E+00
  0.00000000E+00  0.00000000E+00  0.00000000E+00
  0.00000000E+00  0.00000000E+00  0.00000000E+00
  0.00000000E+00  0.00000000E+00  0.00000000E+00
  0.00000000E+00  0.00000000E+00  0.00000000E+00
  0.00000000E+00  0.00000000E+00  0.00000000E+00
  0.00000000E+00  0.00000000E+00  0.00000000E+00
  0.00000000E+00  0.00000000E+00  0.00000000E+00
  0.00000000E+00  0.00000000E+00  0.00000000E+00
  0.00000000E+00  0.00000000E+00  0.00000000E+00
  0.00000000E+00  0.00000000E+00  0.00000000E+00
  0.00000000E+00  0.00000000E+00  0.00000000E+00
  0.00000000E+00  0.00000000E+00  0.00000000E+00
  0.00000000E+00  0.00000000E+00  0.00000000E+00
  0.00000000E+00  0.00000000E+00  0.00000000E+00
  0.00000000E+00  0.00000000E+00  0.00000000E+00
  0.00000000E+00  0.00000000E+00  0.00000000E+00
  0.00000000E+00  0.00000000E+00  0.00000000E+00
  0.00000000E+00  0.00000000E+00  0.00000000E+00
  0.00000000E+00  0.00000000E+00  0.00000000E+00
  0.00000000E+00  0.00000000E+00  0.00000000E+00
  0.00000000E+00  0.00000000E+00  0.00000000E+00
  0.00000000E+00  0.00000000E+00  0.00000000E+00
  0.00000000E+00  0.00000000E+00  0.00000000E+00
  0.00000000E+00  0.00000000E+00  0.00000000E+00
  0.00000000E+00  0.00000000E+00  0.00000000E+00
  0.00000000E+00  0.00000000E+00  0.00000000E+00
  0.00000000E+00  0.00000000E+00  0.00000000E+00
  0.00000000E+00  0.00000000E+00  0.00000000E+00
  0.00000000E+00  0.00000000E+00  0.00000000E+00
  0.00000000E+00  0.00000000E+00  0.00000000E+00
  0.00000000E+00  0.00000000E+00  0.00000000E+00
  0.00000000E+00  0.00000000E+00  0.00000000E+00
  0.00000000E+00  0.00000000E+00  0.00000000E+00
  0.00000000E+00  0.00000000E+00  0.00000000E+00
  0.00000000E+00  0.00000000E+00  0.00000000E+00
  0.00000000E+00  0.00000000E+00  0.00000000E+00
  0.00000000E+00  0.00000000E+00  0.00000000E+00
  0.00000000E+00  0.00000000E+00  0.00000000E+00
  0.00000000E+00  0.00000000E+00  0.00000000E+00
  0.00000000E+00  0.00000000E+00  0.00000000E+00
  0.00000000E+00  0.00000000E+00  0.00000000E+00
  0.00000000E+00  0.00000000E+00  0.00000000E+00
  0.00000000E+00  0.00000000E+00  0.00000000E+00
  0.00000000E+00  0.00000000E+00  0.00000000E+00
  0.00000000E+00  0.00000000E+00  0.00000000E+00
  0.00000000E+00  0.00000000E+00  0.00000000E+00
  0.00000000E+00  0.00000000E+00  0.00000000E+00
  0.00000000E+00  0.00000000E+00  0.00000000E+00
  0.00000000E+00  0.00000000E+00  0.00000000E+00
  0.00000000E+00  0.00000000E+00  0.00000000E+00
  0.00000000E+00  0.00000000E+00  0.00000000E+00
  0.00000000E+00  0.00000000E+00  0.00000000E+00
  0.00000000E+00  0.00000000E+00  0.00000000E+00
  0.00000000E+00  0.00000000E+00  0.00000000E+00
  0.00000000E+00  0.00000000E+00  0.00000000E+00
  0.00000000E+00  0.00000000E+00  0.00000000E+00
  0.00000000E+00  0.00000000E+00  0.00000000E+00
  0.00000000E+00  0.00000000E+00  0.00000000E+00
  0.00000000E+00  0.00000000E+00  0.00000000E+00
  0.00000000E+00  0.00000000E+00  0.00000000E+00
  0.00000000E+00  0.00000000E+00  0.00000000E+00
  0.00000000E+00  0.00000000E+00  0.00000000E+00
  0.00000000E+00  0.00000000E+00  0.00000000E+00
  0.00000000E+00  0.00000000E+00  0.00000000E+00
  0.00000000E+00  0.00000000E+00  0.00000000E+00
  0.00000000E+00  0.00000000E+00  0.00000000E+00
  0.00000000E+00  0.00000000E+00  0.00000000E+00
  0.00000000E+00  0.00000000E+00  0.00000000E+00
  0.00000000E+00  0.00000000E+00  0.00000000E+00
  0.00000000E+00  0.00000000E+00  0.00000000E+00
  0.00000000E+00  0.00000000E+00  0.00000000E+00
  0.00000000E+00  0.00000000E+00  0.00000000E+00
  0.00000000E+00  0.00000000E+00  0.00000000E+00
  0.00000000E+00  0.00000000E+00  0.00000000E+00
  0.00000000E+00  0.00000000E+00  0.00000000E+00
  0.00000000E+00  0.00000000E+00  0.00000000E+00
  0.00000000E+00  0.00000000E+00  0.00000000E+00
  0.00000000E+00  0.00000000E+00  0.00000000E+00
  0.00000000E+00  0.00000000E+00  0.00000000E+00
  0.00000000E+00  0.00000000E+00  0.00000000E+00
  0.00000000E+00  0.00000000E+00  0.00000000E+00
