OUTCAR                                  
   1.00000000000000     
    13.0219330000000006    0.0000000000000000    0.0000000000000000
     0.0000000000000000   13.0219330000000006    0.0000000000000000
     0.0000000000000000    0.0000000000000000   13.0219330000000006
   La   Li   O    r 
    24    57    96    16
Direct
  0.9961383097156968  0.2475296013582096  0.1275047874633586
  0.9998939593560721  0.2497735643341841  0.6256633774751137
  0.9977875846440014  0.7519877637267811  0.3803711996296855
  0.9975316493641557  0.7487518459354092  0.8696895332070511
  0.1141402274964278  0.0033494427262042  0.2540016167068302
  0.1304361717506808  0.4993612198546202  0.7506222847264894
  0.2478768331446801  0.1185446217235580  0.0018287562943016
  0.2460050300224168  0.3666130442627775  0.4986396650758564
  0.2482051338129381  0.6318695462321458  0.0026490881084129
  0.2463079355853637  0.8826492081970656  0.5007861470795234
  0.3806242094556325  0.0003742256551149  0.7513899050583390
  0.3644569030305362  0.4997956365646203  0.2517206428332344
  0.4964427450728905  0.2500282831041929  0.3731038486621756
  0.4991418385054942  0.2504030912158512  0.8836686707843597
  0.4960499734572181  0.7514453384063771  0.1346170916486997
  0.4957372491748018  0.7483984744628316  0.6183819951026379
  0.6287308315658748  0.0002534047117848  0.2519099126177338
  0.6152903449682796  0.4998217768627029  0.7503948001606346
  0.7495039718817367  0.1273876973618400  0.5014520339472952
  0.7484283638768119  0.3823834600297502  0.0037226713163321
  0.7456166532758459  0.6176338099266516  0.5012077884322252
  0.7477533192214594  0.8671406925070784  0.0015918503032637
  0.8666110015522648  0.0001524251040337  0.7503080922637864
  0.8737938414305120  0.5000448839998271  0.2531896142140297
  0.5746433740213703  0.4091432698785979  0.1910972476530972
  0.9997679376165820  0.2523857423470020  0.8771296931211907
  0.9984992351091364  0.7515715511315975  0.6260359103599100
  0.0742717021958299  0.0923477417158693  0.8165104290154517
  0.0823930496678003  0.4144114975902653  0.3039475077790215
  0.0749748856148926  0.9118748942186059  0.6835256874113895
  0.2309877919906000  0.1287357127072752  0.4906672359767441
  0.1617883036152534  0.3276247207293252  0.9416141134540226
  0.0855966546296045  0.5815825317620593  0.2036419061094534
  0.1547565001527431  0.6738452871069001  0.5638100817869898
  0.0759478056406593  0.7935431436468647  0.0879451344310311
  0.1810621571026090  0.5736155948688051  0.4014618390916951
  0.1720981122424519  0.9335669295571023  0.8423938224824710
  0.1757751302742960  0.0675864556135863  0.6615533933238780
  0.1784612134888732  0.4265499068566356  0.1035361059515907
  0.3375088138387028  0.6760103979477492  0.4327491681959614
  0.2443765721556090  0.8749878985284312  0.0026112327169656
  0.3097498129099847  0.5760225830997285  0.5883613353973942
  0.3257206920443352  0.0623049117871872  0.3397913531432692
  0.3171530040038277  0.4261194588846351  0.9109775647577862
  0.3934516664284331  0.1764112380805187  0.5741047654576263
  0.3375154947184313  0.3275492992352298  0.0681103133583889
  0.3233682530657092  0.9380836084687090  0.1617650569503084
  0.3732073175392117  0.4970702508416807  0.7488273795291036
  0.4980463638012367  0.7492806381567689  0.3768535770009720
  0.4067107248210178  0.8164774532877530  0.9255769689436448
  0.4235177672156283  0.0928748506639252  0.1837688035039164
  0.4545903359074188  0.3274423308848071  0.6639380836280324
  0.4318527242067915  0.6573670344895248  0.8277485715494564
  0.4230407997632355  0.9045093537493614  0.3186459000356408
  0.5639024973550519  0.1710372834417697  0.6665045413342057
  0.4985498369157995  0.2517986581149572  0.1265798786339900
  0.5632800591250131  0.8408165039395854  0.8257480172154317
  0.6586124603611410  0.1739190069933727  0.0705664631992136
  0.6729424993752673  0.3399223558175848  0.5452541010680534
  0.6216867001643038  0.0037560471625824  0.7505239749974209
  0.5728733182638592  0.5871107417570371  0.3183284168541647
  0.5896794027622789  0.6842762407480976  0.9268430636932337
  0.6554986685216306  0.8257078703423133  0.4373297890134467
  0.6697688378848810  0.5688691129930916  0.1606141091250279
  0.6792671875181497  0.9222500236842350  0.5943897842317867
  0.6839103463092471  0.0766583916986363  0.9120875455339430
  0.6743505356020094  0.4301874168782902  0.3530122975857424
  0.8409800014790747  0.3353431538889708  0.4413627868095489
  0.8133599553925634  0.9230154211140302  0.4122730093337310
  0.7514991110650939  0.6263993589527104  0.0035842577228209
  0.8142936895805661  0.0713440459458425  0.0913831059328984
  0.8215289194496265  0.4329899643824362  0.6495990861021781
  0.8433912538455104  0.1732903980833314  0.9350612425981026
  0.0017038196390402  0.2373845398121261  0.3770126820504132
  0.8755758257293706  0.0176692449952611  0.2617694856155808
  0.8227931049445516  0.5647898584312046  0.8401263514744315
  0.9188152748338112  0.6842890587249002  0.0884811118848887
  0.8388253127411147  0.8249890070250174  0.5667662955667225
  0.9210921217578729  0.4109914278881348  0.8136976714390158
  0.9217406450229078  0.5914397360282848  0.6820983301325612
  0.9250786701141465  0.8559107532944523  0.1782491868195635
  0.0295847699003176  0.0535987824883364  0.6551862264521375
  0.0354986384492832  0.4480185067157407  0.1502284366827951
  0.0371190457624806  0.5518462916262692  0.3516194106573707
  0.0263302048945562  0.9465564346088158  0.8463522260868572
  0.0503367416314546  0.1450936222096573  0.9653941323858248
  0.0502347190273156  0.3504555641319129  0.4719273185609438
  0.0530355918817094  0.6516306419939468  0.0316275751590425
  0.0520198666406131  0.8561987916330338  0.5400268219789410
  0.0962732305088636  0.1945884112788931  0.2694943829668830
  0.1057510860339690  0.3066784083414333  0.7900755205469352
  0.1026572026095636  0.6933943710959412  0.7146142587095667
  0.0949448111408415  0.8120179996742181  0.2286800811323388
  0.1427751156293056  0.0270579615355331  0.4427603092417485
  0.1520097585870204  0.4723302028770604  0.9507484345214863
  0.1522702642036791  0.5287407225225991  0.5526386459459829
  0.1453083228643237  0.9679428146532914  0.0533304180140490
  0.1970190806945737  0.2123809111337636  0.6079623384080719
  0.1953616044154387  0.2809013540574128  0.0960799662584151
  0.1929552844644462  0.7205609505631827  0.4030552902543647
  0.1915458478397767  0.7871206370088757  0.8952106372789927
  0.2210094707900367  0.0976468442102814  0.8062362116267821
  0.2221270548656378  0.3937016170971148  0.3098959933474106
  0.2234127292105299  0.6071215705105644  0.1913796035097306
  0.2199338983137267  0.9049720430881507  0.7003754024703497
  0.2784239740499075  0.0949684305136174  0.1956718693121857
  0.2819102226143855  0.3967315018155730  0.6965747904092581
  0.2853175153171392  0.6051401496348277  0.8073006498714221
  0.2783829429970268  0.9059649536689847  0.3047807121613175
  0.3070597347029818  0.2082155979629619  0.3935752919335371
  0.3053452063905553  0.2801268153336096  0.9058994870633441
  0.2978196938852307  0.7219502072843014  0.5966792810641195
  0.3038105217759224  0.7902980092494332  0.1057309797388370
  0.3493908129426160  0.0340383619122235  0.5557718249885184
  0.3461164100457310  0.4721190697244850  0.0528261280719349
  0.3435069364299679  0.5315160892635404  0.4466300028816548
  0.3531047101055194  0.9632768906028062  0.9455288576158907
  0.4047435837377122  0.1963361225745430  0.7211457142063722
  0.3931504118395495  0.3053626596643397  0.2120895426120910
  0.3928574031087138  0.7011180341740513  0.2888332141470613
  0.4015472154741317  0.8023742282066806  0.7797153636320715
  0.4451123488351953  0.1457143567321637  0.0375781624077263
  0.4347942364246506  0.3482467649428571  0.5234761197276399
  0.4466968530802902  0.6546450093495366  0.9738800540431356
  0.4420041493747178  0.8522474260025632  0.4661188164162340
  0.4701201293928392  0.0486952011261437  0.3467793835108068
  0.4624093641589582  0.4484752361614071  0.8570194297775444
  0.4567043812978540  0.5567875026075981  0.6462782417401343
  0.4692113601625323  0.9476906191666714  0.1532726670657780
  0.5350862564746421  0.0554470656204842  0.8564561527794012
  0.5289019074833021  0.4455583479178742  0.3498421969820171
  0.5260966782640537  0.5525958883115933  0.1573120186399350
  0.5330626599174124  0.9440177615898833  0.6478856504315615
  0.5450584932891118  0.1506722300611116  0.5262089397619789
  0.5542790573388174  0.3550095603464385  0.0372494735017455
  0.5502572390476814  0.6451568859629049  0.4635826656676230
  0.5511486852126453  0.8464543152649995  0.9718106164671241
  0.6026488293597296  0.1975215642511046  0.2143251286314296
  0.5953309400338895  0.3059096332269036  0.7258322094238636
  0.5928854508259462  0.6961736352897034  0.7805469806719145
  0.6004516679359639  0.8089628500508610  0.2893706423431155
  0.6524245478723998  0.0286110911371651  0.0531227576695628
  0.6395656630263886  0.4742248135120875  0.5627400604284531
  0.6455442705244749  0.5373302601601466  0.9500362938331364
  0.6506151206727893  0.9693254290842006  0.4527263616235047
  0.6979447428734815  0.2224412088469379  0.9078602903924136
  0.6977018779694149  0.2891733494616275  0.4019400397716524
  0.6900405303787309  0.7140572836395691  0.1071476160131937
  0.6920600578783436  0.7779423132676584  0.5982123954001537
  0.7103638249214654  0.1074465162410476  0.6958968710037468
  0.7190252977731006  0.4037599096463822  0.1999900467736992
  0.7159286211006943  0.5983048392535082  0.3035864410418014
  0.7100850947812845  0.8953855097381549  0.8052353014113507
  0.7710201688692919  0.1022963962127506  0.3112507906988782
  0.7758974778911352  0.4061124602711530  0.8051893558693450
  0.7764041480614665  0.5969524645518973  0.6979409614537531
  0.7822366487064656  0.8972935323228981  0.1943340505303297
  0.8034458154456843  0.2180898126842834  0.1023785877006276
  0.7995682664213533  0.2902502502008133  0.6061808360169394
  0.8019567676399717  0.7125760931254561  0.8953097143121127
  0.7964268345206094  0.7797197984129554  0.4071918253568185
  0.8442784928376383  0.0268883168060299  0.9475745603487695
  0.8506418718757729  0.4765176474467836  0.4441547028304100
  0.8536513280773903  0.5377889708964076  0.0594318047659499
  0.8438161960188353  0.9698359403301851  0.5567731175155117
  0.8934812340695402  0.1953121965738305  0.7878548573578357
  0.8969415082416958  0.3102822193296788  0.2850587472441504
  0.8973695455641035  0.7023723217094329  0.2285548182971766
  0.8919267212528155  0.8047247888379445  0.7146585804167032
  0.9360911556738429  0.1525702713864732  0.4838577501354777
  0.9412074980340748  0.3553465691309157  0.9665689617809718
  0.9463178930595149  0.6477707889184430  0.5375349876413082
  0.9452456067473065  0.8434143366879852  0.0307159186454129
  0.9590565584761208  0.0486886067850776  0.1454464566196023
  0.9683900100621727  0.4483515965559661  0.6537618560228751
  0.9691747966922790  0.5525507421848133  0.8483902232183098
  0.9561845820323498  0.9440553645604055  0.3583015035267820
  0.9985899629701720  0.9965777890300842  0.9996797449606944
  0.9967274454804382  0.0053361910992251  0.5012711998747790
  0.9999229850510503  0.5010544957509211  0.0003191806624088
  0.9997341219813407  0.4985836387884746  0.5010596362468789
  0.2455891748240120  0.2468491591365947  0.2502272877517768
  0.2522463366357286  0.2513067116132603  0.7534920502932323
  0.2442910683359329  0.7553092976012863  0.2516087614946372
  0.2492414780812524  0.7514995486129692  0.7491606464179981
  0.5000966798852602  0.9983378178014419  0.0025659320837477
  0.4983343242924718  0.0006358099589363  0.4996721700857023
  0.4977094969701525  0.5023625280135420  0.0046648930917002
  0.4930297914629520  0.4969796741689052  0.5009713198570651
  0.7522337366066765  0.2493940932427776  0.2534357394202331
  0.7470756789132480  0.2535675923758305  0.7542197557509809
  0.7478213459223682  0.7504576990326370  0.2545551663092098
  0.7448811752741022  0.7479606301783122  0.7490532500664955
 
  0.00000000E+00  0.00000000E+00  0.00000000E+00
  0.00000000E+00  0.00000000E+00  0.00000000E+00
  0.00000000E+00  0.00000000E+00  0.00000000E+00
  0.00000000E+00  0.00000000E+00  0.00000000E+00
  0.00000000E+00  0.00000000E+00  0.00000000E+00
  0.00000000E+00  0.00000000E+00  0.00000000E+00
  0.00000000E+00  0.00000000E+00  0.00000000E+00
  0.00000000E+00  0.00000000E+00  0.00000000E+00
  0.00000000E+00  0.00000000E+00  0.00000000E+00
  0.00000000E+00  0.00000000E+00  0.00000000E+00
  0.00000000E+00  0.00000000E+00  0.00000000E+00
  0.00000000E+00  0.00000000E+00  0.00000000E+00
  0.00000000E+00  0.00000000E+00  0.00000000E+00
  0.00000000E+00  0.00000000E+00  0.00000000E+00
  0.00000000E+00  0.00000000E+00  0.00000000E+00
  0.00000000E+00  0.00000000E+00  0.00000000E+00
  0.00000000E+00  0.00000000E+00  0.00000000E+00
  0.00000000E+00  0.00000000E+00  0.00000000E+00
  0.00000000E+00  0.00000000E+00  0.00000000E+00
  0.00000000E+00  0.00000000E+00  0.00000000E+00
  0.00000000E+00  0.00000000E+00  0.00000000E+00
  0.00000000E+00  0.00000000E+00  0.00000000E+00
  0.00000000E+00  0.00000000E+00  0.00000000E+00
  0.00000000E+00  0.00000000E+00  0.00000000E+00
  0.00000000E+00  0.00000000E+00  0.00000000E+00
  0.00000000E+00  0.00000000E+00  0.00000000E+00
  0.00000000E+00  0.00000000E+00  0.00000000E+00
  0.00000000E+00  0.00000000E+00  0.00000000E+00
  0.00000000E+00  0.00000000E+00  0.00000000E+00
  0.00000000E+00  0.00000000E+00  0.00000000E+00
  0.00000000E+00  0.00000000E+00  0.00000000E+00
  0.00000000E+00  0.00000000E+00  0.00000000E+00
  0.00000000E+00  0.00000000E+00  0.00000000E+00
  0.00000000E+00  0.00000000E+00  0.00000000E+00
  0.00000000E+00  0.00000000E+00  0.00000000E+00
  0.00000000E+00  0.00000000E+00  0.00000000E+00
  0.00000000E+00  0.00000000E+00  0.00000000E+00
  0.00000000E+00  0.00000000E+00  0.00000000E+00
  0.00000000E+00  0.00000000E+00  0.00000000E+00
  0.00000000E+00  0.00000000E+00  0.00000000E+00
  0.00000000E+00  0.00000000E+00  0.00000000E+00
  0.00000000E+00  0.00000000E+00  0.00000000E+00
  0.00000000E+00  0.00000000E+00  0.00000000E+00
  0.00000000E+00  0.00000000E+00  0.00000000E+00
  0.00000000E+00  0.00000000E+00  0.00000000E+00
  0.00000000E+00  0.00000000E+00  0.00000000E+00
  0.00000000E+00  0.00000000E+00  0.00000000E+00
  0.00000000E+00  0.00000000E+00  0.00000000E+00
  0.00000000E+00  0.00000000E+00  0.00000000E+00
  0.00000000E+00  0.00000000E+00  0.00000000E+00
  0.00000000E+00  0.00000000E+00  0.00000000E+00
  0.00000000E+00  0.00000000E+00  0.00000000E+00
  0.00000000E+00  0.00000000E+00  0.00000000E+00
  0.00000000E+00  0.00000000E+00  0.00000000E+00
  0.00000000E+00  0.00000000E+00  0.00000000E+00
  0.00000000E+00  0.00000000E+00  0.00000000E+00
  0.00000000E+00  0.00000000E+00  0.00000000E+00
  0.00000000E+00  0.00000000E+00  0.00000000E+00
  0.00000000E+00  0.00000000E+00  0.00000000E+00
  0.00000000E+00  0.00000000E+00  0.00000000E+00
  0.00000000E+00  0.00000000E+00  0.00000000E+00
  0.00000000E+00  0.00000000E+00  0.00000000E+00
  0.00000000E+00  0.00000000E+00  0.00000000E+00
  0.00000000E+00  0.00000000E+00  0.00000000E+00
  0.00000000E+00  0.00000000E+00  0.00000000E+00
  0.00000000E+00  0.00000000E+00  0.00000000E+00
  0.00000000E+00  0.00000000E+00  0.00000000E+00
  0.00000000E+00  0.00000000E+00  0.00000000E+00
  0.00000000E+00  0.00000000E+00  0.00000000E+00
  0.00000000E+00  0.00000000E+00  0.00000000E+00
  0.00000000E+00  0.00000000E+00  0.00000000E+00
  0.00000000E+00  0.00000000E+00  0.00000000E+00
  0.00000000E+00  0.00000000E+00  0.00000000E+00
  0.00000000E+00  0.00000000E+00  0.00000000E+00
  0.00000000E+00  0.00000000E+00  0.00000000E+00
  0.00000000E+00  0.00000000E+00  0.00000000E+00
  0.00000000E+00  0.00000000E+00  0.00000000E+00
  0.00000000E+00  0.00000000E+00  0.00000000E+00
  0.00000000E+00  0.00000000E+00  0.00000000E+00
  0.00000000E+00  0.00000000E+00  0.00000000E+00
  0.00000000E+00  0.00000000E+00  0.00000000E+00
  0.00000000E+00  0.00000000E+00  0.00000000E+00
  0.00000000E+00  0.00000000E+00  0.00000000E+00
  0.00000000E+00  0.00000000E+00  0.00000000E+00
  0.00000000E+00  0.00000000E+00  0.00000000E+00
  0.00000000E+00  0.00000000E+00  0.00000000E+00
  0.00000000E+00  0.00000000E+00  0.00000000E+00
  0.00000000E+00  0.00000000E+00  0.00000000E+00
  0.00000000E+00  0.00000000E+00  0.00000000E+00
  0.00000000E+00  0.00000000E+00  0.00000000E+00
  0.00000000E+00  0.00000000E+00  0.00000000E+00
  0.00000000E+00  0.00000000E+00  0.00000000E+00
  0.00000000E+00  0.00000000E+00  0.00000000E+00
  0.00000000E+00  0.00000000E+00  0.00000000E+00
  0.00000000E+00  0.00000000E+00  0.00000000E+00
  0.00000000E+00  0.00000000E+00  0.00000000E+00
  0.00000000E+00  0.00000000E+00  0.00000000E+00
  0.00000000E+00  0.00000000E+00  0.00000000E+00
  0.00000000E+00  0.00000000E+00  0.00000000E+00
  0.00000000E+00  0.00000000E+00  0.00000000E+00
  0.00000000E+00  0.00000000E+00  0.00000000E+00
  0.00000000E+00  0.00000000E+00  0.00000000E+00
  0.00000000E+00  0.00000000E+00  0.00000000E+00
  0.00000000E+00  0.00000000E+00  0.00000000E+00
  0.00000000E+00  0.00000000E+00  0.00000000E+00
  0.00000000E+00  0.00000000E+00  0.00000000E+00
  0.00000000E+00  0.00000000E+00  0.00000000E+00
  0.00000000E+00  0.00000000E+00  0.00000000E+00
  0.00000000E+00  0.00000000E+00  0.00000000E+00
  0.00000000E+00  0.00000000E+00  0.00000000E+00
  0.00000000E+00  0.00000000E+00  0.00000000E+00
  0.00000000E+00  0.00000000E+00  0.00000000E+00
  0.00000000E+00  0.00000000E+00  0.00000000E+00
  0.00000000E+00  0.00000000E+00  0.00000000E+00
  0.00000000E+00  0.00000000E+00  0.00000000E+00
  0.00000000E+00  0.00000000E+00  0.00000000E+00
  0.00000000E+00  0.00000000E+00  0.00000000E+00
  0.00000000E+00  0.00000000E+00  0.00000000E+00
  0.00000000E+00  0.00000000E+00  0.00000000E+00
  0.00000000E+00  0.00000000E+00  0.00000000E+00
  0.00000000E+00  0.00000000E+00  0.00000000E+00
  0.00000000E+00  0.00000000E+00  0.00000000E+00
  0.00000000E+00  0.00000000E+00  0.00000000E+00
  0.00000000E+00  0.00000000E+00  0.00000000E+00
  0.00000000E+00  0.00000000E+00  0.00000000E+00
  0.00000000E+00  0.00000000E+00  0.00000000E+00
  0.00000000E+00  0.00000000E+00  0.00000000E+00
  0.00000000E+00  0.00000000E+00  0.00000000E+00
  0.00000000E+00  0.00000000E+00  0.00000000E+00
  0.00000000E+00  0.00000000E+00  0.00000000E+00
  0.00000000E+00  0.00000000E+00  0.00000000E+00
  0.00000000E+00  0.00000000E+00  0.00000000E+00
  0.00000000E+00  0.00000000E+00  0.00000000E+00
  0.00000000E+00  0.00000000E+00  0.00000000E+00
  0.00000000E+00  0.00000000E+00  0.00000000E+00
  0.00000000E+00  0.00000000E+00  0.00000000E+00
  0.00000000E+00  0.00000000E+00  0.00000000E+00
  0.00000000E+00  0.00000000E+00  0.00000000E+00
  0.00000000E+00  0.00000000E+00  0.00000000E+00
  0.00000000E+00  0.00000000E+00  0.00000000E+00
  0.00000000E+00  0.00000000E+00  0.00000000E+00
  0.00000000E+00  0.00000000E+00  0.00000000E+00
  0.00000000E+00  0.00000000E+00  0.00000000E+00
  0.00000000E+00  0.00000000E+00  0.00000000E+00
  0.00000000E+00  0.00000000E+00  0.00000000E+00
  0.00000000E+00  0.00000000E+00  0.00000000E+00
  0.00000000E+00  0.00000000E+00  0.00000000E+00
  0.00000000E+00  0.00000000E+00  0.00000000E+00
  0.00000000E+00  0.00000000E+00  0.00000000E+00
  0.00000000E+00  0.00000000E+00  0.00000000E+00
  0.00000000E+00  0.00000000E+00  0.00000000E+00
  0.00000000E+00  0.00000000E+00  0.00000000E+00
  0.00000000E+00  0.00000000E+00  0.00000000E+00
  0.00000000E+00  0.00000000E+00  0.00000000E+00
  0.00000000E+00  0.00000000E+00  0.00000000E+00
  0.00000000E+00  0.00000000E+00  0.00000000E+00
  0.00000000E+00  0.00000000E+00  0.00000000E+00
  0.00000000E+00  0.00000000E+00  0.00000000E+00
  0.00000000E+00  0.00000000E+00  0.00000000E+00
  0.00000000E+00  0.00000000E+00  0.00000000E+00
  0.00000000E+00  0.00000000E+00  0.00000000E+00
  0.00000000E+00  0.00000000E+00  0.00000000E+00
  0.00000000E+00  0.00000000E+00  0.00000000E+00
  0.00000000E+00  0.00000000E+00  0.00000000E+00
  0.00000000E+00  0.00000000E+00  0.00000000E+00
  0.00000000E+00  0.00000000E+00  0.00000000E+00
  0.00000000E+00  0.00000000E+00  0.00000000E+00
  0.00000000E+00  0.00000000E+00  0.00000000E+00
  0.00000000E+00  0.00000000E+00  0.00000000E+00
  0.00000000E+00  0.00000000E+00  0.00000000E+00
  0.00000000E+00  0.00000000E+00  0.00000000E+00
  0.00000000E+00  0.00000000E+00  0.00000000E+00
  0.00000000E+00  0.00000000E+00  0.00000000E+00
  0.00000000E+00  0.00000000E+00  0.00000000E+00
  0.00000000E+00  0.00000000E+00  0.00000000E+00
  0.00000000E+00  0.00000000E+00  0.00000000E+00
  0.00000000E+00  0.00000000E+00  0.00000000E+00
  0.00000000E+00  0.00000000E+00  0.00000000E+00
  0.00000000E+00  0.00000000E+00  0.00000000E+00
  0.00000000E+00  0.00000000E+00  0.00000000E+00
  0.00000000E+00  0.00000000E+00  0.00000000E+00
  0.00000000E+00  0.00000000E+00  0.00000000E+00
  0.00000000E+00  0.00000000E+00  0.00000000E+00
  0.00000000E+00  0.00000000E+00  0.00000000E+00
  0.00000000E+00  0.00000000E+00  0.00000000E+00
  0.00000000E+00  0.00000000E+00  0.00000000E+00
  0.00000000E+00  0.00000000E+00  0.00000000E+00
  0.00000000E+00  0.00000000E+00  0.00000000E+00
  0.00000000E+00  0.00000000E+00  0.00000000E+00
  0.00000000E+00  0.00000000E+00  0.00000000E+00
  0.00000000E+00  0.00000000E+00  0.00000000E+00
  0.00000000E+00  0.00000000E+00  0.00000000E+00
  0.00000000E+00  0.00000000E+00  0.00000000E+00
