ISTART=1
ENCUT=500
EDIFF=1e-6
EDIFFG=-1e-2
IBRION=2
NSW=0
ISIF=0
PREC=Accurate
LREAL=AUTO
NPAR=320
NCORE=20
NELM=300
LPLANE=.TRUE.
ISMEAR=-5
NEDOS=4000
LORBIT=11
NELECT=1088
LVHAR=.TRUE.
LVTOT=.TRUE.
LHFCALC=.TRUE.
HFSCREEN=0.2
PRECFOCK=normal
ISPIN=2
MAGMOM=24*0 1*1 168*0
