li7p3s11v2_repeated                     
   1.0000000000000000     
    12.9303569954357584   -0.0055171164728584   -0.0066446093855628
     3.4770799172556122   11.7271612541874983   -0.0563124812770564
    -5.2750953018632378   -1.1251746658341901   11.2568398352299681
   Li   P    S 
    29    12    44
Direct
  0.6461927611568754  0.0245172373103912  0.0433687098834667
  0.3456220266492096  0.4675343696036620  0.9372006858991355
  0.6387002433849460  0.2609387005303603  0.8516792594043920
  0.3633002287690630  0.2299392390974262  0.1422291515600094
  0.9278935001766371  0.3836561565926644  0.2575749549826014
  0.0500211833035422  0.1007413430043371  0.7551768357507029
  0.6679272589736058  0.2977090987717261  0.5157195138280670
  0.3531067545405975  0.1009821161828768  0.4941182020294761
  0.8359942776439837  0.4887812221769963  0.7677460564748770
  0.1574675757617570  0.0435261057619698  0.1553446548573802
  0.6979162258421141  0.2464687546395083  0.2718738964941707
  0.3123132012288750  0.2386340844125669  0.7237194510845200
  0.0043944191070153  0.0940283649864355  0.3680169312217316
  0.9702095983195989  0.2929609664440420  0.9809950838603854
  0.6512075960733696  0.5277159120524999  0.0592938595833274
  0.3333822262762567  0.9700195210460905  0.9158363211752487
  0.6462591362356704  0.7626566172902045  0.8621046511972494
  0.3582076613645171  0.7238082728160720  0.1447564733844047
  0.9278716689466577  0.8805350316295915  0.2594510092812996
  0.0750863175439846  0.6114273471688634  0.7460272617636292
  0.6219145669456339  0.8572961145736144  0.5097838208327161
  0.3553746323154527  0.7084246148667788  0.5019859805179649
  0.8445187703689143  0.9893348178287056  0.7635981679532762
  0.1683742892963949  0.5142397238447671  0.2246749911189525
  0.7056347259943223  0.7549378481100248  0.2825738478148736
  0.2930290727159885  0.7488409105522393  0.7308977960405798
  0.9980626065085332  0.6140678240253408  0.3855224681383831
  0.9707778352345713  0.7945992040770804  0.9774727559213545
  0.0297060446532598  0.3358735872124541  0.6150913092149679
  0.2224088269017059  0.4834771186765536  0.5399609556745517
  0.7812682249196783  0.0103447356771866  0.4631033350640479
  0.5153488797551304  0.4897377688948978  0.7197228709129320
  0.4820128059100384  0.0056184423840335  0.2713180359574849
  0.1600484567575293  0.3693842892554855  0.9374505527827708
  0.8439441188770544  0.1255105762139124  0.0624778645079118
  0.2003180755969964  0.9835438456073504  0.5525130087367103
  0.7872398039604107  0.5111362184734674  0.4664866791811164
  0.5326777978557047  0.9747019839524356  0.7114601310331636
  0.4896703419676740  0.5050424439645340  0.2881769191569177
  0.1584283217721989  0.8664507835282151  0.9458025581889302
  0.8465810140965999  0.6237306388250659  0.0677240597855757
  0.1439521745393719  0.4082713624265395  0.3765202573674884
  0.8352294999262924  0.1120738108881909  0.6172483820486505
  0.1941230622636994  0.4387531484804654  0.6711606222623345
  0.8082970880448812  0.0513122299401729  0.3294048159129588
  0.1618305805451641  0.1575138772416622  0.5423201611994983
  0.8287199773157781  0.3384594772394109  0.4627500152431523
  0.3986682653557594  0.4147817807731471  0.5616316601187492
  0.6011260794555966  0.0760856854246583  0.4329690851354755
  0.6665892600080241  0.3931156209685440  0.7090125301241201
  0.3378855000010148  0.1083947240434000  0.2925314987427825
  0.5071283854240036  0.4530359917822722  0.8657609349428697
  0.4900610373178793  0.0396391067006263  0.1250770841028626
  0.4964846168876420  0.1458712664436987  0.6960536160040434
  0.5162786047198011  0.3379182346478729  0.3055429749344540
  0.1618081858984652  0.3374541770027690  0.0920534591503426
  0.8424427573126394  0.1566374429081989  0.9080810126707419
  0.1527587671706598  0.0365994599073289  0.9548214105063906
  0.8475934768799718  0.4557993901586102  0.0618577689623478
  0.3112802072751464  0.2709268513049850  0.9239787116864306
  0.6901306597330645  0.2211504349871589  0.0720456314652864
  0.0148773199646186  0.3178797905716522  0.8022035625574802
  0.9856493927552066  0.1762977377220807  0.1995694645441901
  0.1347693366150651  0.9009771745597348  0.3887335324176533
  0.8610580805484105  0.5903962093352035  0.6273743066711504
  0.1682038627073439  0.9409996945993129  0.6803100933231434
  0.8123475903711181  0.5550250135157668  0.3331928790019774
  0.1786439372180197  0.6551064592075377  0.5411553018589430
  0.8257239056756234  0.8431053152511154  0.4761759782684862
  0.4295956824934777  0.9049914460397019  0.5499705381963196
  0.6105915867237570  0.5788237039724748  0.4445947134362598
  0.6958452837126785  0.8879539169628998  0.7271456420044160
  0.3422187481763999  0.6070156711605605  0.3026878010109684
  0.5061969293190458  0.9476109475460177  0.8527573268666018
  0.4967700932600465  0.5332218914098021  0.1386311784928083
  0.4865076977816187  0.6586600271380689  0.7105430902339904
  0.5117736946631055  0.8379310623866161  0.2861322399222885
  0.1613879008124428  0.8404414716519781  0.1026414341167623
  0.8476335937027173  0.6534725369079553  0.9144288462279988
  0.1525813847134074  0.5365592440297675  0.9420665898983387
  0.8482630790511223  0.9582404165289091  0.0620747407033448
  0.3108454741932860  0.7709051216102409  0.9324788226614871
  0.6933295574902374  0.7203926046594447  0.0778861550048120
  0.0158736744870041  0.8198796882105910  0.8089587818706079
  0.9865115543648315  0.6734420415196922  0.2074309054752277

  0.00000000E+00  0.00000000E+00  0.00000000E+00
  0.00000000E+00  0.00000000E+00  0.00000000E+00
  0.00000000E+00  0.00000000E+00  0.00000000E+00
  0.00000000E+00  0.00000000E+00  0.00000000E+00
  0.00000000E+00  0.00000000E+00  0.00000000E+00
  0.00000000E+00  0.00000000E+00  0.00000000E+00
  0.00000000E+00  0.00000000E+00  0.00000000E+00
  0.00000000E+00  0.00000000E+00  0.00000000E+00
  0.00000000E+00  0.00000000E+00  0.00000000E+00
  0.00000000E+00  0.00000000E+00  0.00000000E+00
  0.00000000E+00  0.00000000E+00  0.00000000E+00
  0.00000000E+00  0.00000000E+00  0.00000000E+00
  0.00000000E+00  0.00000000E+00  0.00000000E+00
  0.00000000E+00  0.00000000E+00  0.00000000E+00
  0.00000000E+00  0.00000000E+00  0.00000000E+00
  0.00000000E+00  0.00000000E+00  0.00000000E+00
  0.00000000E+00  0.00000000E+00  0.00000000E+00
  0.00000000E+00  0.00000000E+00  0.00000000E+00
  0.00000000E+00  0.00000000E+00  0.00000000E+00
  0.00000000E+00  0.00000000E+00  0.00000000E+00
  0.00000000E+00  0.00000000E+00  0.00000000E+00
  0.00000000E+00  0.00000000E+00  0.00000000E+00
  0.00000000E+00  0.00000000E+00  0.00000000E+00
  0.00000000E+00  0.00000000E+00  0.00000000E+00
  0.00000000E+00  0.00000000E+00  0.00000000E+00
  0.00000000E+00  0.00000000E+00  0.00000000E+00
  0.00000000E+00  0.00000000E+00  0.00000000E+00
  0.00000000E+00  0.00000000E+00  0.00000000E+00
  0.00000000E+00  0.00000000E+00  0.00000000E+00
  0.00000000E+00  0.00000000E+00  0.00000000E+00
  0.00000000E+00  0.00000000E+00  0.00000000E+00
  0.00000000E+00  0.00000000E+00  0.00000000E+00
  0.00000000E+00  0.00000000E+00  0.00000000E+00
  0.00000000E+00  0.00000000E+00  0.00000000E+00
  0.00000000E+00  0.00000000E+00  0.00000000E+00
  0.00000000E+00  0.00000000E+00  0.00000000E+00
  0.00000000E+00  0.00000000E+00  0.00000000E+00
  0.00000000E+00  0.00000000E+00  0.00000000E+00
  0.00000000E+00  0.00000000E+00  0.00000000E+00
  0.00000000E+00  0.00000000E+00  0.00000000E+00
  0.00000000E+00  0.00000000E+00  0.00000000E+00
  0.00000000E+00  0.00000000E+00  0.00000000E+00
  0.00000000E+00  0.00000000E+00  0.00000000E+00
  0.00000000E+00  0.00000000E+00  0.00000000E+00
  0.00000000E+00  0.00000000E+00  0.00000000E+00
  0.00000000E+00  0.00000000E+00  0.00000000E+00
  0.00000000E+00  0.00000000E+00  0.00000000E+00
  0.00000000E+00  0.00000000E+00  0.00000000E+00
  0.00000000E+00  0.00000000E+00  0.00000000E+00
  0.00000000E+00  0.00000000E+00  0.00000000E+00
  0.00000000E+00  0.00000000E+00  0.00000000E+00
  0.00000000E+00  0.00000000E+00  0.00000000E+00
  0.00000000E+00  0.00000000E+00  0.00000000E+00
  0.00000000E+00  0.00000000E+00  0.00000000E+00
  0.00000000E+00  0.00000000E+00  0.00000000E+00
  0.00000000E+00  0.00000000E+00  0.00000000E+00
  0.00000000E+00  0.00000000E+00  0.00000000E+00
  0.00000000E+00  0.00000000E+00  0.00000000E+00
  0.00000000E+00  0.00000000E+00  0.00000000E+00
  0.00000000E+00  0.00000000E+00  0.00000000E+00
  0.00000000E+00  0.00000000E+00  0.00000000E+00
  0.00000000E+00  0.00000000E+00  0.00000000E+00
  0.00000000E+00  0.00000000E+00  0.00000000E+00
  0.00000000E+00  0.00000000E+00  0.00000000E+00
  0.00000000E+00  0.00000000E+00  0.00000000E+00
  0.00000000E+00  0.00000000E+00  0.00000000E+00
  0.00000000E+00  0.00000000E+00  0.00000000E+00
  0.00000000E+00  0.00000000E+00  0.00000000E+00
  0.00000000E+00  0.00000000E+00  0.00000000E+00
  0.00000000E+00  0.00000000E+00  0.00000000E+00
  0.00000000E+00  0.00000000E+00  0.00000000E+00
  0.00000000E+00  0.00000000E+00  0.00000000E+00
  0.00000000E+00  0.00000000E+00  0.00000000E+00
  0.00000000E+00  0.00000000E+00  0.00000000E+00
  0.00000000E+00  0.00000000E+00  0.00000000E+00
  0.00000000E+00  0.00000000E+00  0.00000000E+00
  0.00000000E+00  0.00000000E+00  0.00000000E+00
  0.00000000E+00  0.00000000E+00  0.00000000E+00
  0.00000000E+00  0.00000000E+00  0.00000000E+00
  0.00000000E+00  0.00000000E+00  0.00000000E+00
  0.00000000E+00  0.00000000E+00  0.00000000E+00
  0.00000000E+00  0.00000000E+00  0.00000000E+00
  0.00000000E+00  0.00000000E+00  0.00000000E+00
  0.00000000E+00  0.00000000E+00  0.00000000E+00
  0.00000000E+00  0.00000000E+00  0.00000000E+00
