OUTCAR                                  
   1.00000000000000     
    13.0219330000000006    0.0000000000000000    0.0000000000000000
     0.0000000000000000   13.0219330000000006    0.0000000000000000
     0.0000000000000000    0.0000000000000000   13.0219330000000006
   La   Li   O    r 
    24    56    95    16
Direct
  0.9996781516068793  0.2486578092749809  0.1259983507057640
  0.9900875079474574  0.2426085242248988  0.6393552126929549
  0.9988215662373321  0.7553448351306997  0.3782878943530434
  0.9986539338904166  0.7478246951357761  0.8691000262252757
  0.1243834965624799  0.9993358528762499  0.2499423335873274
  0.1308951891196841  0.4926137668877715  0.7502252837330019
  0.2487192832112086  0.1159222865395790  0.0039631007003038
  0.2648100096637904  0.3684982479492547  0.5020911382839159
  0.2474449736633417  0.6289491564529044  0.0007563592794497
  0.2448953754443082  0.8734435199295874  0.5041056294295316
  0.3753064210795571  0.9963450565288099  0.7516751605236607
  0.3653912603415463  0.4989169109209399  0.2522109923368490
  0.4978741527019892  0.2439691190752313  0.3654913521117109
  0.4943381331990437  0.2470504236293110  0.8847182950193400
  0.4954931376826011  0.7499048888311748  0.1337220359921005
  0.4992479117647477  0.7474596882235574  0.6207770989805823
  0.6257781777477405  0.9963642070860530  0.2496512500892862
  0.6161280808672345  0.4974058499728287  0.7531263783206370
  0.7493807156946630  0.1314375835028372  0.4982064394638712
  0.7460190449883299  0.3777947001498774  0.0040569275266478
  0.7438760201864270  0.6172647733882002  0.4993441546230599
  0.7469022355971546  0.8660281073365397  0.0007303539865333
  0.8656112451927456  0.9958057753150626  0.7518090812632678
  0.8806073906089793  0.4923187006591334  0.2523085125989155
  0.9989536944962012  0.2419247206626949  0.8791223629827485
  0.0041030574818990  0.7515045785409669  0.6284790689205977
  0.0853593634270666  0.0738220927857256  0.7980821324056251
  0.1183172803290944  0.4813091348838796  0.2573166499897610
  0.0830183921242096  0.9184514667598478  0.6884967576873322
  0.1521234409252372  0.1702815302725398  0.4347994669248649
  0.1558683992952510  0.3227468402371585  0.9363004850534651
  0.0665673668392515  0.6486708545936111  0.1768582351061880
  0.1641135206986561  0.6606424694013668  0.5614942682933304
  0.0861114328983206  0.8122200797044172  0.0763956747751635
  0.1771662490666301  0.5678049879517602  0.3992080792184112
  0.1769635940465335  0.9193805970973230  0.8603429630002282
  0.1888266625253792  0.0827114848795816  0.5963109709350221
  0.1804608254319930  0.4265437782002692  0.0896521983035754
  0.3358811094511722  0.6707087076923699  0.4375049794520862
  0.2608973495532325  0.8776495934310589  0.0254194852899445
  0.3280559628678645  0.5725578982172337  0.5967082069430703
  0.3149486899643890  0.0719920949717050  0.4100755912972573
  0.3125000396753492  0.4232806300682697  0.9096689369509647
  0.3942782723566012  0.1722072682967379  0.5695985228159017
  0.3382488088361697  0.3272978933420845  0.0715290297483335
  0.3814914082753731  0.0277603816559804  0.2201544220699958
  0.3762355954683301  0.4925618225912203  0.7514524866593604
  0.5007792201787495  0.7440246003587276  0.3782332044442356
  0.4078279684152406  0.8107212963249353  0.9227219567559786
  0.4887125118424507  0.2333513992527898  0.1291730147676731
  0.4383925292136794  0.3297207451839057  0.6725485780744975
  0.4322642803030305  0.6519048585358718  0.8270421832889028
  0.4145152059593755  0.8953879455747469  0.3286579558224716
  0.5558922995146105  0.1587343848622780  0.6716103670542779
  0.5696371630042023  0.3987449190789647  0.1818123211220950
  0.5646997184551310  0.8390892701770554  0.8264169381553401
  0.6559823026146390  0.1703426815630138  0.0679899003910833
  0.5998086097988562  0.3160963517153945  0.5737141157053358
  0.6209147738458896  0.9975453118376976  0.7508004640883570
  0.5752308189919262  0.5862587443193661  0.3118247587480596
  0.5870435901432529  0.6833503160090189  0.9267246725786862
  0.6585035668944812  0.8236619742567441  0.4337245515595498
  0.6725492090095386  0.5608733226853602  0.1593399089440908
  0.6841496642722902  0.9216155657991081  0.5922416496067981
  0.6760555709171143  0.0729946248374844  0.9098093860760912
  0.6702719018697678  0.4287382775712842  0.3375927415095319
  0.7623231401335175  0.3688557454206034  0.4919130450015032
  0.8137402692875852  0.9231275392185410  0.4094137176900503
  0.7483840288039687  0.6230610812691282  0.0015057204867972
  0.8146246937647348  0.0690269302444619  0.0923524004480996
  0.8192294176818180  0.4299669584344485  0.6589750719840524
  0.8343478078990429  0.1713984473028560  0.9395905867006249
  0.9706670413705041  0.2177871594921257  0.3565241919122855
  0.8793015047254329  0.0128032222024004  0.2590154121981385
  0.8224663405716157  0.5615815196924174  0.8444927406657570
  0.9100320407246514  0.6845184322821183  0.0785752070219559
  0.8423758650142403  0.8238739287949315  0.5668815114366126
  0.9182297452911570  0.3997259944971603  0.8227232013754318
  0.9231704854829630  0.5844671213111994  0.6948550391700863
  0.9282239918489736  0.8496087693155090  0.1727656044869406
  0.0301175398221289  0.0532190882985759  0.6558126374450097
  0.0345105583917444  0.4469909662136402  0.1436017360423349
  0.0314000463132231  0.5523189154727319  0.3554043409300363
  0.0295271388625693  0.9423475832894184  0.8448833815490531
  0.0555446308439826  0.1436540245376392  0.9681129493000427
  0.0495436051903511  0.6508849592358956  0.0286007515531068
  0.0527380770829140  0.8556484901424142  0.5398763649633622
  0.0987812486983017  0.1921037102787508  0.2905453804947342
  0.1013016657477479  0.3032492666855902  0.7900354390452335
  0.1052083372629724  0.6831516512970168  0.7106836704295247
  0.0953765797001793  0.8011507547538557  0.2219950766959400
  0.1495980177948937  0.0305546417262477  0.4549414483929581
  0.1500298363838795  0.4686834284941241  0.9463038603201923
  0.1466473241748858  0.5124661276112761  0.5444548367301181
  0.1429994739039415  0.9574933541744386  0.0502905757328520
  0.1788613656791895  0.2281265421165557  0.5983661627488885
  0.1922394071681381  0.2832797423582605  0.1008958692191371
  0.1915687050531147  0.7146294481167743  0.4073429297157958
  0.1914961774347930  0.7765308307733179  0.8957761025843993
  0.2254818697732759  0.0953887459643425  0.8045725473486129
  0.2209276994902254  0.3977351316797808  0.3165976789233227
  0.2088520748459075  0.5990851793183154  0.2040092792647172
  0.2236431819350884  0.8931631529633250  0.7020954417661756
  0.2649790817976481  0.1018597772001471  0.1915863978050680
  0.2883912638356492  0.3916949510890007  0.6955435599306128
  0.2866307900958631  0.5956499787106537  0.8065724646877754
  0.2718332938068357  0.8980149325294420  0.3141163821424655
  0.3034885423470683  0.2142083394416190  0.3991449951211266
  0.2974767016877564  0.2778769859809742  0.9024725267219651
  0.3020337102675299  0.7123750130565938  0.5967725790709153
  0.3049649513303549  0.7693293014404006  0.1065013042833129
  0.3510930371998455  0.0302220850811707  0.5547764811333167
  0.3429050055600413  0.4707213185888719  0.0532660530417601
  0.3511117049692345  0.5286251038076486  0.4537842879073182
  0.3518763935962070  0.9556619356204337  0.9432192207424848
  0.3974332272159842  0.1923607919321171  0.7156100989128831
  0.3922855375327288  0.3069862855256673  0.2143172902856705
  0.3929293220376451  0.6946383926705479  0.2921817759526064
  0.4030063744551668  0.7928086744216500  0.7787723965798889
  0.4379558518444071  0.1425139191215976  0.0280430652500598
  0.4497573377290465  0.3447960353509743  0.5277761713404487
  0.4463805271867543  0.6506945333344589  0.9717899732662048
  0.4450469880672472  0.8472127299823526  0.4680209420244239
  0.4611246996081633  0.0424090290738164  0.3510368344185153
  0.4626813437688568  0.4429476343537004  0.8565742407375083
  0.4662133255909495  0.5516181814876120  0.6477336922853993
  0.4749107826140815  0.9375229801778175  0.1533470366315939
  0.5328668719115015  0.0506678172413402  0.8551648462407755
  0.5274461459207345  0.4459750366320634  0.3471019878301504
  0.5266177963623377  0.5496107073559955  0.1553507993921741
  0.5347283700468353  0.9387051962668451  0.6478913773758705
  0.5484772627272250  0.1486988601772765  0.5265033218200017
  0.5488040279229693  0.3500529847494604  0.0374634569994683
  0.5593286032469891  0.6421845665514994  0.4650544932574547
  0.5506558241928872  0.8425553075381842  0.9708496244913150
  0.6015140319964658  0.1912579590880625  0.2134725968002016
  0.5901283597833711  0.2990035515984886  0.7214104653501749
  0.5962616368764557  0.6928378432721800  0.7806472460602620
  0.6047492682872075  0.8010034524133971  0.2899289843278723
  0.6501078350990781  0.0255064463563528  0.0518530890388149
  0.6484489321328581  0.4604251017740921  0.5560057707744477
  0.6436510371269648  0.5334749872740119  0.9480308913637217
  0.6520570593600539  0.9675366822511791  0.4501318083435280
  0.6909163057443237  0.2181559404107531  0.9063438493504066
  0.6891582888102903  0.2855231018041309  0.3941559006264015
  0.6935172374271730  0.7113898891368891  0.1053634887512302
  0.6963822361931875  0.7753924841855806  0.5974712284066257
  0.7098661416076126  0.1005836410688303  0.6965916221184401
  0.7158601416353889  0.3991680171038894  0.1948605793814480
  0.7204390351026788  0.5928773172203634  0.3012667005043781
  0.7115869987596781  0.8916539895476703  0.8058426937457313
  0.7757664541965283  0.1007432907386274  0.3107945766297817
  0.7735735674720701  0.3996957609849758  0.8052888440941004
  0.7777420963083799  0.5920260397350603  0.6993240939031224
  0.7845962128180517  0.8945213401289251  0.1946508559550466
  0.7984541394557567  0.2137984995651578  0.0961869005498954
  0.7947793390417957  0.2843319119885024  0.6086032043458118
  0.8052905779357431  0.7095411923508834  0.8953956264539329
  0.8025183815969541  0.7766761383418839  0.4050020204509011
  0.8448139635812169  0.0255877577798032  0.9464567035035714
  0.8518407640406238  0.4715453073894409  0.4452584844606164
  0.8515018929210854  0.5338733027714611  0.0543900645484499
  0.8454196927867486  0.9707672961662581  0.5535705341298822
  0.8904438443604974  0.1933091991776621  0.7886466625514004
  0.8974274108303817  0.3050170559981282  0.2687108068364097
  0.9035199381989614  0.6981792239027911  0.2230375498667456
  0.8933764561996611  0.8028172408056520  0.7141557657732420
  0.9492094469102810  0.1563151224007626  0.4840563521345160
  0.9409525351457830  0.3506152231402879  0.9661673867897136
  0.9444542154406719  0.6489963376419539  0.5409775857783998
  0.9448737023868787  0.8436260817283028  0.0273842418407924
  0.9632681412529749  0.0495483154315579  0.1446939574681139
  0.9686037500034388  0.4388734417794211  0.6450954060321337
  0.9681041693948060  0.5462135893436511  0.8429481594886781
  0.9639987989005476  0.9431797947242302  0.3574914616191123
  0.9982256116557977  0.9979397227428279  0.9977651586222791
  0.9977457367972917  0.0035567045140255  0.5025296818630949
  0.9977612880406213  0.4987123609610435  0.9982044286358516
  0.9906816111388750  0.5125973609400205  0.5024918570010897
  0.2435456273071495  0.2497345820611727  0.2520754390933746
  0.2470295681051695  0.2445347578404125  0.7518009755946693
  0.2465520045857588  0.7501634511112627  0.2530508012177819
  0.2505209139126379  0.7433213708423096  0.7491985727179795
  0.4959858597887887  0.9947661369187131  0.0045113448919167
  0.5014513648557397  0.9956724121709897  0.5009203160717277
  0.4959957782816744  0.4994818910072212  0.0040996114245289
  0.5027601637336190  0.4953326627733290  0.4983358837746863
  0.7510673048675116  0.2460070897795887  0.2495964398346970
  0.7405635865822049  0.2472100795705003  0.7540057847851926
  0.7513193042538262  0.7457129405754301  0.2513684528294178
  0.7472805910567573  0.7440914817726139  0.7492906540056339
 
  0.00000000E+00  0.00000000E+00  0.00000000E+00
  0.00000000E+00  0.00000000E+00  0.00000000E+00
  0.00000000E+00  0.00000000E+00  0.00000000E+00
  0.00000000E+00  0.00000000E+00  0.00000000E+00
  0.00000000E+00  0.00000000E+00  0.00000000E+00
  0.00000000E+00  0.00000000E+00  0.00000000E+00
  0.00000000E+00  0.00000000E+00  0.00000000E+00
  0.00000000E+00  0.00000000E+00  0.00000000E+00
  0.00000000E+00  0.00000000E+00  0.00000000E+00
  0.00000000E+00  0.00000000E+00  0.00000000E+00
  0.00000000E+00  0.00000000E+00  0.00000000E+00
  0.00000000E+00  0.00000000E+00  0.00000000E+00
  0.00000000E+00  0.00000000E+00  0.00000000E+00
  0.00000000E+00  0.00000000E+00  0.00000000E+00
  0.00000000E+00  0.00000000E+00  0.00000000E+00
  0.00000000E+00  0.00000000E+00  0.00000000E+00
  0.00000000E+00  0.00000000E+00  0.00000000E+00
  0.00000000E+00  0.00000000E+00  0.00000000E+00
  0.00000000E+00  0.00000000E+00  0.00000000E+00
  0.00000000E+00  0.00000000E+00  0.00000000E+00
  0.00000000E+00  0.00000000E+00  0.00000000E+00
  0.00000000E+00  0.00000000E+00  0.00000000E+00
  0.00000000E+00  0.00000000E+00  0.00000000E+00
  0.00000000E+00  0.00000000E+00  0.00000000E+00
  0.00000000E+00  0.00000000E+00  0.00000000E+00
  0.00000000E+00  0.00000000E+00  0.00000000E+00
  0.00000000E+00  0.00000000E+00  0.00000000E+00
  0.00000000E+00  0.00000000E+00  0.00000000E+00
  0.00000000E+00  0.00000000E+00  0.00000000E+00
  0.00000000E+00  0.00000000E+00  0.00000000E+00
  0.00000000E+00  0.00000000E+00  0.00000000E+00
  0.00000000E+00  0.00000000E+00  0.00000000E+00
  0.00000000E+00  0.00000000E+00  0.00000000E+00
  0.00000000E+00  0.00000000E+00  0.00000000E+00
  0.00000000E+00  0.00000000E+00  0.00000000E+00
  0.00000000E+00  0.00000000E+00  0.00000000E+00
  0.00000000E+00  0.00000000E+00  0.00000000E+00
  0.00000000E+00  0.00000000E+00  0.00000000E+00
  0.00000000E+00  0.00000000E+00  0.00000000E+00
  0.00000000E+00  0.00000000E+00  0.00000000E+00
  0.00000000E+00  0.00000000E+00  0.00000000E+00
  0.00000000E+00  0.00000000E+00  0.00000000E+00
  0.00000000E+00  0.00000000E+00  0.00000000E+00
  0.00000000E+00  0.00000000E+00  0.00000000E+00
  0.00000000E+00  0.00000000E+00  0.00000000E+00
  0.00000000E+00  0.00000000E+00  0.00000000E+00
  0.00000000E+00  0.00000000E+00  0.00000000E+00
  0.00000000E+00  0.00000000E+00  0.00000000E+00
  0.00000000E+00  0.00000000E+00  0.00000000E+00
  0.00000000E+00  0.00000000E+00  0.00000000E+00
  0.00000000E+00  0.00000000E+00  0.00000000E+00
  0.00000000E+00  0.00000000E+00  0.00000000E+00
  0.00000000E+00  0.00000000E+00  0.00000000E+00
  0.00000000E+00  0.00000000E+00  0.00000000E+00
  0.00000000E+00  0.00000000E+00  0.00000000E+00
  0.00000000E+00  0.00000000E+00  0.00000000E+00
  0.00000000E+00  0.00000000E+00  0.00000000E+00
  0.00000000E+00  0.00000000E+00  0.00000000E+00
  0.00000000E+00  0.00000000E+00  0.00000000E+00
  0.00000000E+00  0.00000000E+00  0.00000000E+00
  0.00000000E+00  0.00000000E+00  0.00000000E+00
  0.00000000E+00  0.00000000E+00  0.00000000E+00
  0.00000000E+00  0.00000000E+00  0.00000000E+00
  0.00000000E+00  0.00000000E+00  0.00000000E+00
  0.00000000E+00  0.00000000E+00  0.00000000E+00
  0.00000000E+00  0.00000000E+00  0.00000000E+00
  0.00000000E+00  0.00000000E+00  0.00000000E+00
  0.00000000E+00  0.00000000E+00  0.00000000E+00
  0.00000000E+00  0.00000000E+00  0.00000000E+00
  0.00000000E+00  0.00000000E+00  0.00000000E+00
  0.00000000E+00  0.00000000E+00  0.00000000E+00
  0.00000000E+00  0.00000000E+00  0.00000000E+00
  0.00000000E+00  0.00000000E+00  0.00000000E+00
  0.00000000E+00  0.00000000E+00  0.00000000E+00
  0.00000000E+00  0.00000000E+00  0.00000000E+00
  0.00000000E+00  0.00000000E+00  0.00000000E+00
  0.00000000E+00  0.00000000E+00  0.00000000E+00
  0.00000000E+00  0.00000000E+00  0.00000000E+00
  0.00000000E+00  0.00000000E+00  0.00000000E+00
  0.00000000E+00  0.00000000E+00  0.00000000E+00
  0.00000000E+00  0.00000000E+00  0.00000000E+00
  0.00000000E+00  0.00000000E+00  0.00000000E+00
  0.00000000E+00  0.00000000E+00  0.00000000E+00
  0.00000000E+00  0.00000000E+00  0.00000000E+00
  0.00000000E+00  0.00000000E+00  0.00000000E+00
  0.00000000E+00  0.00000000E+00  0.00000000E+00
  0.00000000E+00  0.00000000E+00  0.00000000E+00
  0.00000000E+00  0.00000000E+00  0.00000000E+00
  0.00000000E+00  0.00000000E+00  0.00000000E+00
  0.00000000E+00  0.00000000E+00  0.00000000E+00
  0.00000000E+00  0.00000000E+00  0.00000000E+00
  0.00000000E+00  0.00000000E+00  0.00000000E+00
  0.00000000E+00  0.00000000E+00  0.00000000E+00
  0.00000000E+00  0.00000000E+00  0.00000000E+00
  0.00000000E+00  0.00000000E+00  0.00000000E+00
  0.00000000E+00  0.00000000E+00  0.00000000E+00
  0.00000000E+00  0.00000000E+00  0.00000000E+00
  0.00000000E+00  0.00000000E+00  0.00000000E+00
  0.00000000E+00  0.00000000E+00  0.00000000E+00
  0.00000000E+00  0.00000000E+00  0.00000000E+00
  0.00000000E+00  0.00000000E+00  0.00000000E+00
  0.00000000E+00  0.00000000E+00  0.00000000E+00
  0.00000000E+00  0.00000000E+00  0.00000000E+00
  0.00000000E+00  0.00000000E+00  0.00000000E+00
  0.00000000E+00  0.00000000E+00  0.00000000E+00
  0.00000000E+00  0.00000000E+00  0.00000000E+00
  0.00000000E+00  0.00000000E+00  0.00000000E+00
  0.00000000E+00  0.00000000E+00  0.00000000E+00
  0.00000000E+00  0.00000000E+00  0.00000000E+00
  0.00000000E+00  0.00000000E+00  0.00000000E+00
  0.00000000E+00  0.00000000E+00  0.00000000E+00
  0.00000000E+00  0.00000000E+00  0.00000000E+00
  0.00000000E+00  0.00000000E+00  0.00000000E+00
  0.00000000E+00  0.00000000E+00  0.00000000E+00
  0.00000000E+00  0.00000000E+00  0.00000000E+00
  0.00000000E+00  0.00000000E+00  0.00000000E+00
  0.00000000E+00  0.00000000E+00  0.00000000E+00
  0.00000000E+00  0.00000000E+00  0.00000000E+00
  0.00000000E+00  0.00000000E+00  0.00000000E+00
  0.00000000E+00  0.00000000E+00  0.00000000E+00
  0.00000000E+00  0.00000000E+00  0.00000000E+00
  0.00000000E+00  0.00000000E+00  0.00000000E+00
  0.00000000E+00  0.00000000E+00  0.00000000E+00
  0.00000000E+00  0.00000000E+00  0.00000000E+00
  0.00000000E+00  0.00000000E+00  0.00000000E+00
  0.00000000E+00  0.00000000E+00  0.00000000E+00
  0.00000000E+00  0.00000000E+00  0.00000000E+00
  0.00000000E+00  0.00000000E+00  0.00000000E+00
  0.00000000E+00  0.00000000E+00  0.00000000E+00
  0.00000000E+00  0.00000000E+00  0.00000000E+00
  0.00000000E+00  0.00000000E+00  0.00000000E+00
  0.00000000E+00  0.00000000E+00  0.00000000E+00
  0.00000000E+00  0.00000000E+00  0.00000000E+00
  0.00000000E+00  0.00000000E+00  0.00000000E+00
  0.00000000E+00  0.00000000E+00  0.00000000E+00
  0.00000000E+00  0.00000000E+00  0.00000000E+00
  0.00000000E+00  0.00000000E+00  0.00000000E+00
  0.00000000E+00  0.00000000E+00  0.00000000E+00
  0.00000000E+00  0.00000000E+00  0.00000000E+00
  0.00000000E+00  0.00000000E+00  0.00000000E+00
  0.00000000E+00  0.00000000E+00  0.00000000E+00
  0.00000000E+00  0.00000000E+00  0.00000000E+00
  0.00000000E+00  0.00000000E+00  0.00000000E+00
  0.00000000E+00  0.00000000E+00  0.00000000E+00
  0.00000000E+00  0.00000000E+00  0.00000000E+00
  0.00000000E+00  0.00000000E+00  0.00000000E+00
  0.00000000E+00  0.00000000E+00  0.00000000E+00
  0.00000000E+00  0.00000000E+00  0.00000000E+00
  0.00000000E+00  0.00000000E+00  0.00000000E+00
  0.00000000E+00  0.00000000E+00  0.00000000E+00
  0.00000000E+00  0.00000000E+00  0.00000000E+00
  0.00000000E+00  0.00000000E+00  0.00000000E+00
  0.00000000E+00  0.00000000E+00  0.00000000E+00
  0.00000000E+00  0.00000000E+00  0.00000000E+00
  0.00000000E+00  0.00000000E+00  0.00000000E+00
  0.00000000E+00  0.00000000E+00  0.00000000E+00
  0.00000000E+00  0.00000000E+00  0.00000000E+00
  0.00000000E+00  0.00000000E+00  0.00000000E+00
  0.00000000E+00  0.00000000E+00  0.00000000E+00
  0.00000000E+00  0.00000000E+00  0.00000000E+00
  0.00000000E+00  0.00000000E+00  0.00000000E+00
  0.00000000E+00  0.00000000E+00  0.00000000E+00
  0.00000000E+00  0.00000000E+00  0.00000000E+00
  0.00000000E+00  0.00000000E+00  0.00000000E+00
  0.00000000E+00  0.00000000E+00  0.00000000E+00
  0.00000000E+00  0.00000000E+00  0.00000000E+00
  0.00000000E+00  0.00000000E+00  0.00000000E+00
  0.00000000E+00  0.00000000E+00  0.00000000E+00
  0.00000000E+00  0.00000000E+00  0.00000000E+00
  0.00000000E+00  0.00000000E+00  0.00000000E+00
  0.00000000E+00  0.00000000E+00  0.00000000E+00
  0.00000000E+00  0.00000000E+00  0.00000000E+00
  0.00000000E+00  0.00000000E+00  0.00000000E+00
  0.00000000E+00  0.00000000E+00  0.00000000E+00
  0.00000000E+00  0.00000000E+00  0.00000000E+00
  0.00000000E+00  0.00000000E+00  0.00000000E+00
  0.00000000E+00  0.00000000E+00  0.00000000E+00
  0.00000000E+00  0.00000000E+00  0.00000000E+00
  0.00000000E+00  0.00000000E+00  0.00000000E+00
  0.00000000E+00  0.00000000E+00  0.00000000E+00
  0.00000000E+00  0.00000000E+00  0.00000000E+00
  0.00000000E+00  0.00000000E+00  0.00000000E+00
  0.00000000E+00  0.00000000E+00  0.00000000E+00
  0.00000000E+00  0.00000000E+00  0.00000000E+00
  0.00000000E+00  0.00000000E+00  0.00000000E+00
  0.00000000E+00  0.00000000E+00  0.00000000E+00
  0.00000000E+00  0.00000000E+00  0.00000000E+00
  0.00000000E+00  0.00000000E+00  0.00000000E+00
  0.00000000E+00  0.00000000E+00  0.00000000E+00
  0.00000000E+00  0.00000000E+00  0.00000000E+00
  0.00000000E+00  0.00000000E+00  0.00000000E+00
