li7p3s11v2_repeated                     
   1.0000000000000000     
    12.9303569954357584   -0.0055171164728584   -0.0066446093855628
     3.4770799172556122   11.7271612541874983   -0.0563124812770564
    -5.2750953018632378   -1.1251746658341901   11.2568398352299681
   Li   P    S    P    S    S    S    S 
    28    11    40     1     1     1     1     1
Direct
  0.6538236609492074  0.0286514805846494  0.0657013523774523
  0.3255375183785176  0.5376357145168811  0.8922977801979641
  0.6448166799041033  0.2660458869030151  0.8630020015666418
  0.3617624513764213  0.2282948851020521  0.1567101327788620
  0.9267939699005368  0.3851329749070658  0.2606818482402957
  0.0526034101638047  0.0964150374393853  0.7407298672471612
  0.6663906487075621  0.3094317732939587  0.5115450347890160
  0.3659521797871790  0.1330654958813255  0.4998241265927916
  0.8349150276762529  0.4880562137615172  0.7609819823067099
  0.1615769871602737  0.0132094407605479  0.2135322780346556
  0.7021631273456705  0.2550979332281216  0.2765929671287708
  0.2916560874963139  0.2589295101896028  0.7210157627256564
  0.9979345613423547  0.1136824307671631  0.3795610639155811
  0.9685581276985005  0.2867849775261249  0.9807967468991521
  0.6554387995022353  0.5302025816906024  0.0660378431064785
  0.3465719702725991  0.9571281217418814  0.9347433260792357
  0.6552223484765989  0.7699496238280332  0.8610486410570672
  0.3642749767441913  0.7247991957705437  0.1464338111399712
  0.9320421369003640  0.8845591196730922  0.2629571426953135
  0.0456134800536461  0.6077133431867239  0.7295687931491699
  0.6651922324876764  0.8087991659156799  0.5117071846544263
  0.3710437345193967  0.6345485103919231  0.4979413377164050
  0.8366095961730622  0.9872471816171853  0.7601183473430950
  0.1650301802176202  0.5125138602279549  0.2310795819467799
  0.7031709029044180  0.7572486380646311  0.2744502097773278
  0.2985751729107022  0.7575732598132987  0.7184181944713330
  0.9964883222825023  0.6156963533287012  0.3862920602550233
  0.9673898475756602  0.8007016778886751  0.9763857428144291
  0.2247310426895623  0.4959038484786191  0.5426121000215289
  0.7808439438240740  0.0127641816455295  0.4629202427656196
  0.5232254822969296  0.4928002948444288  0.7228715744066321
  0.4833230874728969  0.0038428692886896  0.2778806083913423
  0.8447260677064250  0.1249179702732022  0.0651749138671605
  0.2210369579368816  0.9936670867825654  0.5407798274927202
  0.7792429450791403  0.5134207368603683  0.4622325184463350
  0.5188474663547282  0.9915464196582491  0.7240234002731682
  0.4831456225963393  0.5032188908754947  0.2761887474672733
  0.1543595350283837  0.8609311229198156  0.9340446789062753
  0.8507183599556427  0.6235816593391093  0.0687799913235096
  0.1457966199757124  0.4128982773840306  0.3839009812839151
  0.8376240900647218  0.1093519295595655  0.6190394744998073
  0.1975768951468169  0.4611166158004849  0.6776132254516867
  0.8088013665450049  0.0557618246939313  0.3306656022559693
  0.1792149384924926  0.1644014322408722  0.5315460209743605
  0.8279475039046957  0.3443106647601510  0.4688260810510627
  0.4013875997862542  0.4240916848559380  0.5617700595884827
  0.6013378253600905  0.0791507082458409  0.4346313728640609
  0.6710063578136740  0.3906489060540892  0.7107146258728037
  0.3351797941570851  0.1046338343375837  0.2923209279500796
  0.5103219258772924  0.4584651077200519  0.8668573989926713
  0.4897509841325416  0.0358675865514755  0.1293018715616654
  0.4896684698286862  0.1601495585687545  0.7117117672189934
  0.5145956593275898  0.3366784546560311  0.2994055433247524
  0.8431483612315489  0.1516039963001958  0.9093381748791103
  0.1542611768029261  0.0269759301106589  0.9403169784099887
  0.8503445087456214  0.4567530685765107  0.0645585285231931
  0.6913894593896472  0.2220000503505375  0.0748838779887748
  0.9852535624392118  0.1770147094093915  0.2023790818520652
  0.1452021002964443  0.9151283259107998  0.3777703190784791
  0.8353007886148873  0.6098354537395281  0.6189838795998597
  0.1944072170617233  0.9542696675934650  0.6727452643221028
  0.8082677800384701  0.5577618405806746  0.3312273234017624
  0.1837256297054424  0.6653129304024432  0.5295006663783681
  0.8272381938847531  0.8435823437719350  0.4693178772037854
  0.3988124492596441  0.9241062967701694  0.5608754303334820
  0.6001760721339622  0.5790308777742865  0.4339680634776713
  0.6681904404733956  0.8922573527336297  0.7111785577753338
  0.3346286092148461  0.6037356588190121  0.2895523871195280
  0.5087630998498227  0.9550799909483416  0.8682302554746002
  0.4922861218786920  0.5322354489108818  0.1289117805743061
  0.4963752628961942  0.6603886806919803  0.7093451095126611
  0.5144743576401609  0.8368045639757611  0.2970865047020794
  0.1632247199953270  0.8301096684305023  0.0922279638235253
  0.8596745568740332  0.6488982305655000  0.9167338399828679
  0.8493964121546398  0.9572818357043502  0.0654728828026734
  0.3052977687707568  0.7592561925106764  0.9166130086703745
  0.6953839236821793  0.7222873007142709  0.0716501590419867
  0.0084437756387246  0.8157380367430491  0.8017669153315055
  0.9880794278810328  0.6751702075849053  0.2103589444380916
  0.1467307589453668  0.3663707694076805  0.9391990380204405
  0.1584733634433775  0.3345662058093097  0.0964779903376680
  0.0090942153502880  0.3141028855915025  0.8051878080148214
  0.1469959949820208  0.5328945389436512  0.9397749512149218
  0.3054018310412729  0.3022080980583723  0.9283943500528906

  0.00000000E+00  0.00000000E+00  0.00000000E+00
  0.00000000E+00  0.00000000E+00  0.00000000E+00
  0.00000000E+00  0.00000000E+00  0.00000000E+00
  0.00000000E+00  0.00000000E+00  0.00000000E+00
  0.00000000E+00  0.00000000E+00  0.00000000E+00
  0.00000000E+00  0.00000000E+00  0.00000000E+00
  0.00000000E+00  0.00000000E+00  0.00000000E+00
  0.00000000E+00  0.00000000E+00  0.00000000E+00
  0.00000000E+00  0.00000000E+00  0.00000000E+00
  0.00000000E+00  0.00000000E+00  0.00000000E+00
  0.00000000E+00  0.00000000E+00  0.00000000E+00
  0.00000000E+00  0.00000000E+00  0.00000000E+00
  0.00000000E+00  0.00000000E+00  0.00000000E+00
  0.00000000E+00  0.00000000E+00  0.00000000E+00
  0.00000000E+00  0.00000000E+00  0.00000000E+00
  0.00000000E+00  0.00000000E+00  0.00000000E+00
  0.00000000E+00  0.00000000E+00  0.00000000E+00
  0.00000000E+00  0.00000000E+00  0.00000000E+00
  0.00000000E+00  0.00000000E+00  0.00000000E+00
  0.00000000E+00  0.00000000E+00  0.00000000E+00
  0.00000000E+00  0.00000000E+00  0.00000000E+00
  0.00000000E+00  0.00000000E+00  0.00000000E+00
  0.00000000E+00  0.00000000E+00  0.00000000E+00
  0.00000000E+00  0.00000000E+00  0.00000000E+00
  0.00000000E+00  0.00000000E+00  0.00000000E+00
  0.00000000E+00  0.00000000E+00  0.00000000E+00
  0.00000000E+00  0.00000000E+00  0.00000000E+00
  0.00000000E+00  0.00000000E+00  0.00000000E+00
  0.00000000E+00  0.00000000E+00  0.00000000E+00
  0.00000000E+00  0.00000000E+00  0.00000000E+00
  0.00000000E+00  0.00000000E+00  0.00000000E+00
  0.00000000E+00  0.00000000E+00  0.00000000E+00
  0.00000000E+00  0.00000000E+00  0.00000000E+00
  0.00000000E+00  0.00000000E+00  0.00000000E+00
  0.00000000E+00  0.00000000E+00  0.00000000E+00
  0.00000000E+00  0.00000000E+00  0.00000000E+00
  0.00000000E+00  0.00000000E+00  0.00000000E+00
  0.00000000E+00  0.00000000E+00  0.00000000E+00
  0.00000000E+00  0.00000000E+00  0.00000000E+00
  0.00000000E+00  0.00000000E+00  0.00000000E+00
  0.00000000E+00  0.00000000E+00  0.00000000E+00
  0.00000000E+00  0.00000000E+00  0.00000000E+00
  0.00000000E+00  0.00000000E+00  0.00000000E+00
  0.00000000E+00  0.00000000E+00  0.00000000E+00
  0.00000000E+00  0.00000000E+00  0.00000000E+00
  0.00000000E+00  0.00000000E+00  0.00000000E+00
  0.00000000E+00  0.00000000E+00  0.00000000E+00
  0.00000000E+00  0.00000000E+00  0.00000000E+00
  0.00000000E+00  0.00000000E+00  0.00000000E+00
  0.00000000E+00  0.00000000E+00  0.00000000E+00
  0.00000000E+00  0.00000000E+00  0.00000000E+00
  0.00000000E+00  0.00000000E+00  0.00000000E+00
  0.00000000E+00  0.00000000E+00  0.00000000E+00
  0.00000000E+00  0.00000000E+00  0.00000000E+00
  0.00000000E+00  0.00000000E+00  0.00000000E+00
  0.00000000E+00  0.00000000E+00  0.00000000E+00
  0.00000000E+00  0.00000000E+00  0.00000000E+00
  0.00000000E+00  0.00000000E+00  0.00000000E+00
  0.00000000E+00  0.00000000E+00  0.00000000E+00
  0.00000000E+00  0.00000000E+00  0.00000000E+00
  0.00000000E+00  0.00000000E+00  0.00000000E+00
  0.00000000E+00  0.00000000E+00  0.00000000E+00
  0.00000000E+00  0.00000000E+00  0.00000000E+00
  0.00000000E+00  0.00000000E+00  0.00000000E+00
  0.00000000E+00  0.00000000E+00  0.00000000E+00
  0.00000000E+00  0.00000000E+00  0.00000000E+00
  0.00000000E+00  0.00000000E+00  0.00000000E+00
  0.00000000E+00  0.00000000E+00  0.00000000E+00
  0.00000000E+00  0.00000000E+00  0.00000000E+00
  0.00000000E+00  0.00000000E+00  0.00000000E+00
  0.00000000E+00  0.00000000E+00  0.00000000E+00
  0.00000000E+00  0.00000000E+00  0.00000000E+00
  0.00000000E+00  0.00000000E+00  0.00000000E+00
  0.00000000E+00  0.00000000E+00  0.00000000E+00
  0.00000000E+00  0.00000000E+00  0.00000000E+00
  0.00000000E+00  0.00000000E+00  0.00000000E+00
  0.00000000E+00  0.00000000E+00  0.00000000E+00
  0.00000000E+00  0.00000000E+00  0.00000000E+00
  0.00000000E+00  0.00000000E+00  0.00000000E+00
  0.00000000E+00  0.00000000E+00  0.00000000E+00
  0.00000000E+00  0.00000000E+00  0.00000000E+00
  0.00000000E+00  0.00000000E+00  0.00000000E+00
  0.00000000E+00  0.00000000E+00  0.00000000E+00
  0.00000000E+00  0.00000000E+00  0.00000000E+00
