li7p3s11v2_repeated                     
   1.0000000000000000     
    12.9303569954357584   -0.0055171164728584   -0.0066446093855628
     3.4770799172556122   11.7271612541874983   -0.0563124812770564
    -5.2750953018632378   -1.1251746658341901   11.2568398352299681
   Li   P    S 
    27    12    44
Direct
  0.6586428909253925  0.0323202290628828  0.0833763165871986
  0.3299024722818444  0.4995288751109115  0.9022909825525218
  0.6433157161421263  0.2738212606866242  0.8638290888937945
  0.3679842367663895  0.2401803939888012  0.1303707994399943
  0.9298590598822400  0.3753198025704947  0.2694971041916929
  0.0486141597325940  0.0977202005457301  0.7273293286011366
  0.6688459207621165  0.3068527290773488  0.5116495971549284
  0.3697543889750108  0.1304322860832556  0.5022926242041805
  0.8420165004280449  0.4800674296769145  0.7604511453367664
  0.1641979366382955  0.0072861919002705  0.2378155720690529
  0.7122067014584132  0.2528675397805600  0.2816593628863657
  0.2811732500841728  0.2488421292190566  0.7139276551014362
  0.0227163058442130  0.2083832057131190  0.0123286590637406
  0.6637467690646162  0.5271395823847342  0.0670084720131143
  0.3435875174397225  0.9624925986943111  0.9298525615453599
  0.6469394847370680  0.7699718595714558  0.8554523528978848
  0.3582258242180316  0.7272613389949072  0.1415975611306877
  0.9530238700357359  0.9038615969633383  0.2730167077350956
  0.0464768237550786  0.6099325612908757  0.7294425079073150
  0.6581779242870809  0.8122161621997179  0.5106336847899797
  0.3313436812461461  0.6958411570383802  0.4805226321820726
  0.8353161471504293  0.9893109585101811  0.7548970157163737
  0.1639250500322476  0.5080693874230491  0.2304764554407441
  0.7048112305804608  0.7613224901934004  0.2731650655075342
  0.2969879384691367  0.7564650093983758  0.7232463218782073
  0.9959355910733692  0.6115683665775009  0.3847704444281135
  0.9637255143453629  0.8113524960920344  0.9753001492696143
  0.2218264391025357  0.4939599056507689  0.5458525115699047
  0.7735388506834582  0.0129503443472743  0.4586335923514255
  0.5178965052995395  0.4976117778582818  0.7172207298730982
  0.4764865425195666  0.0057881169936991  0.2756006201118453
  0.1421146403331335  0.3678046275380851  0.9357004331984200
  0.8456150912318137  0.1253744325235431  0.0624283047937055
  0.2263623293975527  0.9892873584740727  0.5389599972661330
  0.7771811749214947  0.5158448779775497  0.4617552646871061
  0.5235753461304924  0.9931701585111412  0.7305386763714878
  0.4829383426554017  0.5049119960224431  0.2749261312816387
  0.1518921162570805  0.8678382919814638  0.9343922700655227
  0.8608833096904789  0.6211071517123372  0.0764847273414162
  0.1425451381711298  0.4139553438069896  0.3848363508280173
  0.8313724725093223  0.1119292903336486  0.6139856831910464
  0.1934565339547447  0.4541322455305803  0.6778384302788751
  0.8298836765889561  0.3475467664068219  0.4710272277087384
  0.3968185094326913  0.4229892977052430  0.5624483340710071
  0.5944313096775105  0.0799104308968168  0.4327963056850237
  0.6669277678682874  0.3963093822091110  0.7069420330676408
  0.3293317579314987  0.1021484371164902  0.2928133340219645
  0.5106970654457470  0.4681452596117452  0.8668678252735091
  0.4842068405035747  0.0386733371282872  0.1276386607249975
  0.4902625086596828  0.1615063643536416  0.7158615922391007
  0.5172793424156765  0.3374352963534548  0.2958092430713464
  0.1648479923574584  0.3313112047782525  0.0963616460828902
  0.8366295031745210  0.1520976931008988  0.9031341230354997
  0.1499328724485380  0.0336866500036948  0.9321599584091729
  0.8644473664059831  0.4558308320307987  0.0735888878236892
  0.3009778146515316  0.3057994675103544  0.9232299509514519
  0.6956170521419764  0.2261075598389368  0.0783674420816567
  0.0093215896002619  0.3081193486792486  0.8022889711899808
  0.8336139414228754  0.6122810187867813  0.6184805873109909
  0.1988204138835670  0.9545871001281441  0.6730030333540142
  0.8062475661413444  0.5577064280342867  0.3291493847450084
  0.1758361627006764  0.6647186896270441  0.5381592412002547
  0.8213697192601757  0.8447828165013931  0.4732159409198289
  0.4076942074419989  0.9225924023999141  0.5677811728652529
  0.5981262992278289  0.5810903524297686  0.4333533591788807
  0.6728909568009698  0.8927560628258178  0.7172316385089630
  0.3316796497427248  0.6022332768587617  0.2846540007827230
  0.5132212820641371  0.9573243354967929  0.8746756431342035
  0.4917165641784820  0.5367038854808470  0.1277876129081719
  0.4880087662244605  0.6647508573026641  0.6982773578676955
  0.5123033056045401  0.8369013860233068  0.2913121084512582
  0.1586325146762491  0.8400533714178877  0.0924390058213476
  0.8741492344790061  0.6435495839858447  0.9225946332460779
  0.1124425362774204  0.5430503760083809  0.9361943316512935
  0.8470389679613604  0.9591888290784212  0.0667035663899895
  0.3030636321106073  0.7661409992890285  0.9205858629440655
  0.7016528089645178  0.7207338758751547  0.0660072499549713
  0.0070517992765389  0.8202654655108574  0.8017674814954745
  0.9927554526596438  0.6808694649600113  0.2165642461937765
  0.9906423530869546  0.1727151440902333  0.1931528584616657
  0.8027952831804370  0.0514227762069908  0.3271886677676292
  0.1713556397682581  0.8863797591419242  0.3855044094063871
  0.1792381392684561  0.1550216778993914  0.5167808243143028

  0.00000000E+00  0.00000000E+00  0.00000000E+00
  0.00000000E+00  0.00000000E+00  0.00000000E+00
  0.00000000E+00  0.00000000E+00  0.00000000E+00
  0.00000000E+00  0.00000000E+00  0.00000000E+00
  0.00000000E+00  0.00000000E+00  0.00000000E+00
  0.00000000E+00  0.00000000E+00  0.00000000E+00
  0.00000000E+00  0.00000000E+00  0.00000000E+00
  0.00000000E+00  0.00000000E+00  0.00000000E+00
  0.00000000E+00  0.00000000E+00  0.00000000E+00
  0.00000000E+00  0.00000000E+00  0.00000000E+00
  0.00000000E+00  0.00000000E+00  0.00000000E+00
  0.00000000E+00  0.00000000E+00  0.00000000E+00
  0.00000000E+00  0.00000000E+00  0.00000000E+00
  0.00000000E+00  0.00000000E+00  0.00000000E+00
  0.00000000E+00  0.00000000E+00  0.00000000E+00
  0.00000000E+00  0.00000000E+00  0.00000000E+00
  0.00000000E+00  0.00000000E+00  0.00000000E+00
  0.00000000E+00  0.00000000E+00  0.00000000E+00
  0.00000000E+00  0.00000000E+00  0.00000000E+00
  0.00000000E+00  0.00000000E+00  0.00000000E+00
  0.00000000E+00  0.00000000E+00  0.00000000E+00
  0.00000000E+00  0.00000000E+00  0.00000000E+00
  0.00000000E+00  0.00000000E+00  0.00000000E+00
  0.00000000E+00  0.00000000E+00  0.00000000E+00
  0.00000000E+00  0.00000000E+00  0.00000000E+00
  0.00000000E+00  0.00000000E+00  0.00000000E+00
  0.00000000E+00  0.00000000E+00  0.00000000E+00
  0.00000000E+00  0.00000000E+00  0.00000000E+00
  0.00000000E+00  0.00000000E+00  0.00000000E+00
  0.00000000E+00  0.00000000E+00  0.00000000E+00
  0.00000000E+00  0.00000000E+00  0.00000000E+00
  0.00000000E+00  0.00000000E+00  0.00000000E+00
  0.00000000E+00  0.00000000E+00  0.00000000E+00
  0.00000000E+00  0.00000000E+00  0.00000000E+00
  0.00000000E+00  0.00000000E+00  0.00000000E+00
  0.00000000E+00  0.00000000E+00  0.00000000E+00
  0.00000000E+00  0.00000000E+00  0.00000000E+00
  0.00000000E+00  0.00000000E+00  0.00000000E+00
  0.00000000E+00  0.00000000E+00  0.00000000E+00
  0.00000000E+00  0.00000000E+00  0.00000000E+00
  0.00000000E+00  0.00000000E+00  0.00000000E+00
  0.00000000E+00  0.00000000E+00  0.00000000E+00
  0.00000000E+00  0.00000000E+00  0.00000000E+00
  0.00000000E+00  0.00000000E+00  0.00000000E+00
  0.00000000E+00  0.00000000E+00  0.00000000E+00
  0.00000000E+00  0.00000000E+00  0.00000000E+00
  0.00000000E+00  0.00000000E+00  0.00000000E+00
  0.00000000E+00  0.00000000E+00  0.00000000E+00
  0.00000000E+00  0.00000000E+00  0.00000000E+00
  0.00000000E+00  0.00000000E+00  0.00000000E+00
  0.00000000E+00  0.00000000E+00  0.00000000E+00
  0.00000000E+00  0.00000000E+00  0.00000000E+00
  0.00000000E+00  0.00000000E+00  0.00000000E+00
  0.00000000E+00  0.00000000E+00  0.00000000E+00
  0.00000000E+00  0.00000000E+00  0.00000000E+00
  0.00000000E+00  0.00000000E+00  0.00000000E+00
  0.00000000E+00  0.00000000E+00  0.00000000E+00
  0.00000000E+00  0.00000000E+00  0.00000000E+00
  0.00000000E+00  0.00000000E+00  0.00000000E+00
  0.00000000E+00  0.00000000E+00  0.00000000E+00
  0.00000000E+00  0.00000000E+00  0.00000000E+00
  0.00000000E+00  0.00000000E+00  0.00000000E+00
  0.00000000E+00  0.00000000E+00  0.00000000E+00
  0.00000000E+00  0.00000000E+00  0.00000000E+00
  0.00000000E+00  0.00000000E+00  0.00000000E+00
  0.00000000E+00  0.00000000E+00  0.00000000E+00
  0.00000000E+00  0.00000000E+00  0.00000000E+00
  0.00000000E+00  0.00000000E+00  0.00000000E+00
  0.00000000E+00  0.00000000E+00  0.00000000E+00
  0.00000000E+00  0.00000000E+00  0.00000000E+00
  0.00000000E+00  0.00000000E+00  0.00000000E+00
  0.00000000E+00  0.00000000E+00  0.00000000E+00
  0.00000000E+00  0.00000000E+00  0.00000000E+00
  0.00000000E+00  0.00000000E+00  0.00000000E+00
  0.00000000E+00  0.00000000E+00  0.00000000E+00
  0.00000000E+00  0.00000000E+00  0.00000000E+00
  0.00000000E+00  0.00000000E+00  0.00000000E+00
  0.00000000E+00  0.00000000E+00  0.00000000E+00
  0.00000000E+00  0.00000000E+00  0.00000000E+00
  0.00000000E+00  0.00000000E+00  0.00000000E+00
  0.00000000E+00  0.00000000E+00  0.00000000E+00
  0.00000000E+00  0.00000000E+00  0.00000000E+00
  0.00000000E+00  0.00000000E+00  0.00000000E+00
