li7p3s11v2_repeated                     
   1.0000000000000000     
    12.9303569954357584   -0.0055171164728584   -0.0066446093855628
     3.4770799172556122   11.7271612541874983   -0.0563124812770564
    -5.2750953018632378   -1.1251746658341901   11.2568398352299681
   Li   P    S 
    27    12    44
Direct
  0.6626173803706052  0.0284266433549902  0.0834407458931494
  0.3353839799459379  0.4676196365360568  0.9205911152598745
  0.6407924397695837  0.2767756340607974  0.8635930491983785
  0.3700398162933709  0.2328487573054261  0.1324536836013692
  0.9307472313814529  0.3802511179461163  0.2612267540936060
  0.0506067829780505  0.1067596100646355  0.7295385886880652
  0.6726922787694249  0.3077083592212588  0.5159675273370894
  0.3684921672899364  0.1296697893345637  0.5006720539265501
  0.8466620837071019  0.4868535953361643  0.7774910075275727
  0.1620777405206013  0.0103334452455996  0.2357614599550288
  0.7147220163399766  0.2526493987810738  0.2832105499446698
  0.2835581499108386  0.2460105330092048  0.7112915381697889
  0.0164919303779385  0.2236557616450838  0.0038179572818393
  0.6587556532207159  0.5292901756633412  0.0672310525170730
  0.3367883331685846  0.9762413443707061  0.9244036414972570
  0.6385820725996254  0.7665894878408750  0.8637269487359305
  0.3578689218184508  0.7240451784969864  0.1367446918463884
  0.9504685981356218  0.9030469637637282  0.2682473662554870
  0.0564460949107186  0.6036814526826220  0.7415083639490376
  0.6590860182701022  0.8124995837815447  0.5123272178203351
  0.3304233326007022  0.6939153131034175  0.4832147028128659
  0.8398085901077579  0.9890891200052323  0.7589819303250280
  0.1570573887287452  0.5170232219188762  0.2126108383089402
  0.7037783375626816  0.7562136095905956  0.2804191575292450
  0.2921089706703199  0.7555640697146160  0.7240014293023478
  0.9960171949203200  0.6135690100546327  0.3783572568676732
  0.9708392985834280  0.7947844498122265  0.9774371934677504
  0.2195066318712762  0.4912211133879083  0.5405661585307016
  0.7748120621771832  0.0120026327406677  0.4592703524103712
  0.5143646766768128  0.4976081788772078  0.7170390771589013
  0.4781265675325130  0.0029687184936833  0.2771629269541194
  0.1558026169834079  0.3658276516091874  0.9357980075852410
  0.8458353160476619  0.1276361776658206  0.0604456566045357
  0.2248664551170734  0.9888918820390629  0.5375938502568260
  0.7822845031946670  0.5133522683928291  0.4659627313594186
  0.5237385952678153  0.9945315043965763  0.7285227227355477
  0.4857794948943948  0.5031942647557699  0.2789749501527226
  0.1533138844747981  0.8722890133480732  0.9362569978681705
  0.8442147853314452  0.6310511807762396  0.0688157363812323
  0.1426282320457162  0.4165266745858673  0.3756451285228195
  0.8326677848069295  0.1113705032166550  0.6142708384424438
  0.1903945139405465  0.4476091292939728  0.6691914068326170
  0.8038003090236714  0.0506440733768372  0.3275556321236266
  0.1780317377478653  0.1545799040276918  0.5152835175513246
  0.8322263083016068  0.3449128663514855  0.4735695054384905
  0.3959496181931570  0.4233085142335185  0.5594965571876926
  0.5957290743113148  0.0783794046123347  0.4335557503561702
  0.6652752893969307  0.3994613882223064  0.7084414930244876
  0.3307454308783093  0.1017823575868206  0.2924350970347902
  0.5054715137088266  0.4679399675329634  0.8655089981684441
  0.4878068001940221  0.0333534781283191  0.1296616465879197
  0.4893344697515971  0.1629336716990437  0.7126417026899361
  0.5197833662060418  0.3358426856083838  0.3000101811102382
  0.1705894501420815  0.3337531897836712  0.0963906099183802
  0.8335060480869956  0.1566969689178137  0.9005037314966202
  0.1450033774110580  0.0398738620999026  0.9331496480341315
  0.8552964585319245  0.4627119523833656  0.0667265406018345
  0.3078589432755336  0.2710366605392167  0.9179995737276556
  0.6956330764492691  0.2255819022159216  0.0784577058370175
  0.0128747033760490  0.3152167626813664  0.8052011082102766
  0.9904953508559302  0.1774264614253198  0.1893324080039278
  0.1700747804254235  0.8863459351954859  0.3840059496212476
  0.8388869268232853  0.6097881516662937  0.6219280887242036
  0.1953922393948702  0.9545394728147159  0.6705965262604536
  0.8094684686396505  0.5551804748606273  0.3320714111288510
  0.1734293068785746  0.6630436150133576  0.5372092280417107
  0.8228804132334488  0.8440402191939356  0.4747923293757310
  0.4065063733423671  0.9229512218618865  0.5668872337822037
  0.6023951259355442  0.5796261372508908  0.4362801820114299
  0.6721866606456715  0.8964495443056535  0.7140837425818489
  0.3355816458099525  0.6027593895310730  0.2893055631252608
  0.5128043234438522  0.9600667818057929  0.8730819245518262
  0.4931117738220152  0.5319781401887624  0.1297244831239226
  0.4829703506738312  0.6654811994725947  0.6989591949394836
  0.5110963474378138  0.8352204996655885  0.2962858488772682
  0.1612669733690950  0.8419322983561059  0.0941951335945674
  0.8399699829847123  0.6619259041026311  0.9127331062470248
  0.1476132460140036  0.5345325752436949  0.9410542313027577
  0.8504624403625982  0.9606177374341769  0.0634943013570890
  0.3070185754389456  0.7777169770025267  0.9245524130355776
  0.6889640766494267  0.7251438022081516  0.0776208382725230
  0.0111351582821158  0.8194912629825879  0.8040531881928175
  0.9832224661559223  0.6860674532908888  0.2066329568876739

  0.00000000E+00  0.00000000E+00  0.00000000E+00
  0.00000000E+00  0.00000000E+00  0.00000000E+00
  0.00000000E+00  0.00000000E+00  0.00000000E+00
  0.00000000E+00  0.00000000E+00  0.00000000E+00
  0.00000000E+00  0.00000000E+00  0.00000000E+00
  0.00000000E+00  0.00000000E+00  0.00000000E+00
  0.00000000E+00  0.00000000E+00  0.00000000E+00
  0.00000000E+00  0.00000000E+00  0.00000000E+00
  0.00000000E+00  0.00000000E+00  0.00000000E+00
  0.00000000E+00  0.00000000E+00  0.00000000E+00
  0.00000000E+00  0.00000000E+00  0.00000000E+00
  0.00000000E+00  0.00000000E+00  0.00000000E+00
  0.00000000E+00  0.00000000E+00  0.00000000E+00
  0.00000000E+00  0.00000000E+00  0.00000000E+00
  0.00000000E+00  0.00000000E+00  0.00000000E+00
  0.00000000E+00  0.00000000E+00  0.00000000E+00
  0.00000000E+00  0.00000000E+00  0.00000000E+00
  0.00000000E+00  0.00000000E+00  0.00000000E+00
  0.00000000E+00  0.00000000E+00  0.00000000E+00
  0.00000000E+00  0.00000000E+00  0.00000000E+00
  0.00000000E+00  0.00000000E+00  0.00000000E+00
  0.00000000E+00  0.00000000E+00  0.00000000E+00
  0.00000000E+00  0.00000000E+00  0.00000000E+00
  0.00000000E+00  0.00000000E+00  0.00000000E+00
  0.00000000E+00  0.00000000E+00  0.00000000E+00
  0.00000000E+00  0.00000000E+00  0.00000000E+00
  0.00000000E+00  0.00000000E+00  0.00000000E+00
  0.00000000E+00  0.00000000E+00  0.00000000E+00
  0.00000000E+00  0.00000000E+00  0.00000000E+00
  0.00000000E+00  0.00000000E+00  0.00000000E+00
  0.00000000E+00  0.00000000E+00  0.00000000E+00
  0.00000000E+00  0.00000000E+00  0.00000000E+00
  0.00000000E+00  0.00000000E+00  0.00000000E+00
  0.00000000E+00  0.00000000E+00  0.00000000E+00
  0.00000000E+00  0.00000000E+00  0.00000000E+00
  0.00000000E+00  0.00000000E+00  0.00000000E+00
  0.00000000E+00  0.00000000E+00  0.00000000E+00
  0.00000000E+00  0.00000000E+00  0.00000000E+00
  0.00000000E+00  0.00000000E+00  0.00000000E+00
  0.00000000E+00  0.00000000E+00  0.00000000E+00
  0.00000000E+00  0.00000000E+00  0.00000000E+00
  0.00000000E+00  0.00000000E+00  0.00000000E+00
  0.00000000E+00  0.00000000E+00  0.00000000E+00
  0.00000000E+00  0.00000000E+00  0.00000000E+00
  0.00000000E+00  0.00000000E+00  0.00000000E+00
  0.00000000E+00  0.00000000E+00  0.00000000E+00
  0.00000000E+00  0.00000000E+00  0.00000000E+00
  0.00000000E+00  0.00000000E+00  0.00000000E+00
  0.00000000E+00  0.00000000E+00  0.00000000E+00
  0.00000000E+00  0.00000000E+00  0.00000000E+00
  0.00000000E+00  0.00000000E+00  0.00000000E+00
  0.00000000E+00  0.00000000E+00  0.00000000E+00
  0.00000000E+00  0.00000000E+00  0.00000000E+00
  0.00000000E+00  0.00000000E+00  0.00000000E+00
  0.00000000E+00  0.00000000E+00  0.00000000E+00
  0.00000000E+00  0.00000000E+00  0.00000000E+00
  0.00000000E+00  0.00000000E+00  0.00000000E+00
  0.00000000E+00  0.00000000E+00  0.00000000E+00
  0.00000000E+00  0.00000000E+00  0.00000000E+00
  0.00000000E+00  0.00000000E+00  0.00000000E+00
  0.00000000E+00  0.00000000E+00  0.00000000E+00
  0.00000000E+00  0.00000000E+00  0.00000000E+00
  0.00000000E+00  0.00000000E+00  0.00000000E+00
  0.00000000E+00  0.00000000E+00  0.00000000E+00
  0.00000000E+00  0.00000000E+00  0.00000000E+00
  0.00000000E+00  0.00000000E+00  0.00000000E+00
  0.00000000E+00  0.00000000E+00  0.00000000E+00
  0.00000000E+00  0.00000000E+00  0.00000000E+00
  0.00000000E+00  0.00000000E+00  0.00000000E+00
  0.00000000E+00  0.00000000E+00  0.00000000E+00
  0.00000000E+00  0.00000000E+00  0.00000000E+00
  0.00000000E+00  0.00000000E+00  0.00000000E+00
  0.00000000E+00  0.00000000E+00  0.00000000E+00
  0.00000000E+00  0.00000000E+00  0.00000000E+00
  0.00000000E+00  0.00000000E+00  0.00000000E+00
  0.00000000E+00  0.00000000E+00  0.00000000E+00
  0.00000000E+00  0.00000000E+00  0.00000000E+00
  0.00000000E+00  0.00000000E+00  0.00000000E+00
  0.00000000E+00  0.00000000E+00  0.00000000E+00
  0.00000000E+00  0.00000000E+00  0.00000000E+00
  0.00000000E+00  0.00000000E+00  0.00000000E+00
  0.00000000E+00  0.00000000E+00  0.00000000E+00
  0.00000000E+00  0.00000000E+00  0.00000000E+00
