La Li Li O Zr                           
   1.0000000000000000     
    13.0219330000000006    0.0000000000000000    0.0000000000000000
     0.0000000000000000   13.0219330000000006    0.0000000000000000
     0.0000000000000000    0.0000000000000000   13.0219330000000006
   La   Li   Li   O    Zr
    24     1    56    96    16
Direct
  0.9959912392223913  0.2478521148573805  0.1278782844882684
  0.9982013607223834  0.2488884255820665  0.6275063182707044
  0.9983241999001251  0.7513945407992892  0.3806141866560466
  0.9899165591462875  0.7547542586205296  0.8699604040984710
  0.1141884963424644  0.0033530611843062  0.2545960436816515
  0.1283663618941659  0.5009764672906272  0.7515472530698233
  0.2483614770047637  0.1187946439998058  0.0018421640186901
  0.2447660400123794  0.3664764652269810  0.4988466870499622
  0.2467509298718014  0.6331028643818755  0.0020088525427724
  0.2464075155459184  0.8826953136985551  0.5008275829100270
  0.3807496683581277  0.0008583580993076  0.7511836590846812
  0.3640608793605224  0.5001946673254167  0.2514230727971878
  0.4964639510677600  0.2496130192315604  0.3734591133463070
  0.4988760113506316  0.2506901008735127  0.8838849709439458
  0.4978177670740251  0.7521570651534830  0.1330299569939370
  0.4943459590720920  0.7474093304737153  0.6177733211536918
  0.6299650163439026  0.9992587710546985  0.2513259894508835
  0.6144046578892670  0.4986650637280050  0.7496855619970546
  0.7504390123246196  0.1258544125350269  0.5033789532594000
  0.7476177509816750  0.3825822977660067  0.0044290360353187
  0.7448234328637966  0.6166230029687298  0.5000701385897841
  0.7536851356619891  0.8673816813725352  0.9934895928512404
  0.8668887841399524  0.9917631049919606  0.7563485537884844
  0.8737712812281941  0.5003435439906667  0.2534283184164678
  0.5738528548886208  0.4088024141374405  0.1912742478750218
  0.0011011239494465  0.2524301254969075  0.8781160835785897
  0.9992326357049066  0.7515564920276532  0.6246529354573553
  0.0750490064668625  0.0910500385050668  0.8158436757974101
  0.0829422745415656  0.4166077527760947  0.3012634040379396
  0.0777024031830607  0.9129337564448718  0.6835961510705957
  0.2312863765622524  0.1285821942287626  0.4906643591196911
  0.1620122248145961  0.3281357721063145  0.9419915036886621
  0.0844167112322154  0.5841312149555691  0.2007994161756415
  0.1551691111354572  0.6739260537302769  0.5639267215222858
  0.0751669988637076  0.7927755835939934  0.0888114583621160
  0.1810353621475187  0.5736546718453468  0.4012535913286186
  0.1747165053961339  0.9332052065460843  0.8433581794443015
  0.1766264686040913  0.0689008877220161  0.6612871880014097
  0.1782113687495368  0.4272591391767691  0.1032370096149720
  0.3376826880889112  0.6757743344441778  0.4326370176195695
  0.2443628990751989  0.8756867830718704  0.0035672560746249
  0.3087137981232360  0.5750936903872912  0.5880704482000283
  0.3258900409437757  0.0622757532383531  0.3395979852700464
  0.3165540971183844  0.4272473866972959  0.9111918526909761
  0.3929992353665313  0.1767649364342105  0.5741849120450269
  0.3374407809695512  0.3281090458618365  0.0680754631307039
  0.3237376106404000  0.9382966681384204  0.1617941436650767
  0.3721336081177142  0.4970434866059463  0.7487052414404261
  0.4982373972604677  0.7493501514347685  0.3764217969997361
  0.4049733560976989  0.8176175511912120  0.9249643349471555
  0.4244029013696320  0.0923357276034764  0.1837871529816084
  0.4563141497354408  0.3265062218120462  0.6629363769473429
  0.4322994757303320  0.6576510779630809  0.8281377939176764
  0.4235096490381096  0.9045521589487251  0.3183938025253568
  0.5646146193484540  0.1712825757536933  0.6665941056010141
  0.4980986088581858  0.2516828617166738  0.1268499046370408
  0.5613513896925468  0.8382771980016770  0.8244615012079208
  0.6581138398699622  0.1744467386650967  0.0716399852034328
  0.6791285478749316  0.3421845024166146  0.5414770349572464
  0.6206138476728214  0.0042388571363858  0.7507972820908932
  0.5721788110690440  0.5870433030270306  0.3180881055533646
  0.5923500905184440  0.6828619804709675  0.9254228030438938
  0.6568392039737105  0.8257138226168408  0.4388282225529565
  0.6697568265975562  0.5687166703460633  0.1615542388684119
  0.6775998178333111  0.9210210425416108  0.5970311366687113
  0.6843306255132475  0.0794870542152353  0.9134177808762871
  0.6742063000156264  0.4302967276253966  0.3518833641465875
  0.8455223260477354  0.3339766071008654  0.4378228720406412
  0.8151973975690865  0.9222596700492076  0.4093732251490323
  0.7509692572892348  0.6251008057065803  0.0043985908698971
  0.8138203788873994  0.0722764825499240  0.0902893296472556
  0.8224501131749591  0.4344497568884336  0.6524796281141221
  0.8445891179573906  0.1763571341278407  0.9347063050858466
  0.0034903596909217  0.2368195855401893  0.3776679921204789
  0.8755983124127908  0.0178327525921134  0.2617912837536167
  0.8217234594046730  0.5628327564656388  0.8379958048987248
  0.9189227698799840  0.6846209932715013  0.0904040399692505
  0.8366999770623025  0.8238870959535660  0.5643815430726775
  0.9200247956779606  0.4079739102347446  0.8167123948281230
  0.9209475752500751  0.5944169196694276  0.6805330257024735
  0.9256095432302018  0.8568701930381408  0.1807988696349199
  0.0308414638311589  0.0532866442832045  0.6555048061560953
  0.0354661872278754  0.4477665475360197  0.1507243015836224
  0.0371335685635756  0.5518142353700810  0.3514056517451252
  0.0308464836178004  0.9481734672406432  0.8469265613481411
  0.0515578826109291  0.1455935533115422  0.9662539045437910
  0.0495641146126786  0.3497645146474326  0.4725494029762842
  0.0522206705020949  0.6511935536699269  0.0346069111495311
  0.0538281850736055  0.8561408027487971  0.5401961610046442
  0.0967565314194587  0.1944453402595983  0.2696347854778978
  0.1057548275233771  0.3070590732383209  0.7908857686623350
  0.1032578022268140  0.6938773069842057  0.7131955332215014
  0.0955961705727546  0.8116150551457721  0.2291949474361772
  0.1432994081543697  0.0270506546824905  0.4428759793803536
  0.1513177691023913  0.4728925985353101  0.9510784925889055
  0.1521634418837579  0.5288222050649196  0.5518669695480654
  0.1457364045267937  0.9689946002519605  0.0546146563650112
  0.1975858847691825  0.2126609242142123  0.6080357221461057
  0.1956444795016381  0.2815404998516726  0.0962667352221587
  0.1935563460569227  0.7205712737059002  0.4030913097983770
  0.1946819089806198  0.7880809775629984  0.8958592535820387
  0.2219870484795550  0.0988238308857632  0.8059798193064367
  0.2218697448515314  0.3935872276532280  0.3098234663205659
  0.2230735861031192  0.6073548605788019  0.1914620321126890
  0.2216448604694392  0.9051994704168962  0.7004776192297797
  0.2793406049766105  0.0952799764603185  0.1956849794165905
  0.2798268494831007  0.3980506327929305  0.6961030835359310
  0.2850762111415293  0.6052357501585703  0.8080055945073639
  0.2789162192443939  0.9062127460896647  0.3045571259300672
  0.3070649323572212  0.2079415166245724  0.3934069006058465
  0.3052531437938484  0.2812509587337502  0.9060732324119982
  0.2983011049508804  0.7214149143089799  0.5965360036639069
  0.3040996004030063  0.7906581696795740  0.1058120613891447
  0.3490820161098185  0.0344600091789360  0.5556247321732855
  0.3454379698047134  0.4725101305421120  0.0530663795121029
  0.3425958297109304  0.5312107907988945  0.4457337611745871
  0.3529663986677676  0.9643180126861708  0.9452937074106629
  0.4046561675110070  0.1974294596647255  0.7210594357150057
  0.3932112614143293  0.3058018081503278  0.2121514223072793
  0.3932175938810616  0.7008895898996528  0.2885194652853187
  0.4022359792426542  0.8020741194739713  0.7791642169867217
  0.4452047376677868  0.1457345088848925  0.0379387118919965
  0.4333387043904935  0.3476554824609366  0.5231343100326384
  0.4471727929955236  0.6545789937858615  0.9739923488807563
  0.4415483480801186  0.8522081402396253  0.4657266419192965
  0.4702610478019409  0.0486717981614220  0.3465178781011176
  0.4614930595802846  0.4487491903722471  0.8572908068816218
  0.4552671500633281  0.5553637601289338  0.6453533930699820
  0.4698177672031960  0.9475138160834291  0.1529771340568118
  0.5350340617469342  0.0573831999869938  0.8565939798559796
  0.5285219612292735  0.4448501630180459  0.3494590534982009
  0.5259592142006326  0.5525614490013169  0.1575502840504583
  0.5319455677811220  0.9444349898524251  0.6476115493981567
  0.5444499282293407  0.1506842550791774  0.5263952138527443
  0.5534488453125590  0.3549873820210649  0.0379840375970986
  0.5488847002245265  0.6441878348530281  0.4627118558937369
  0.5493084370975367  0.8466760199637946  0.9702781682952377
  0.6024937071002228  0.1976403199177597  0.2147830668500532
  0.5947481499337428  0.3061549482065971  0.7266889239558978
  0.5913082296972902  0.6930857901027849  0.7785819247358106
  0.6007045147297561  0.8088588930622507  0.2894766337358803
  0.6529488636511047  0.0295157394498773  0.0528304379024931
  0.6381537495663210  0.4733856337482933  0.5616315275924535
  0.6448322774934283  0.5361848679342174  0.9508084507428194
  0.6502599316090567  0.9691936327786337  0.4535797096263394
  0.6977407179177746  0.2238999616003596  0.9084912045753981
  0.6985991261798574  0.2892470282394868  0.4023089255559853
  0.6909633493751031  0.7134569567427320  0.1077794854239826
  0.6897974665062065  0.7763559627196983  0.5960351921497846
  0.7091232295789567  0.1080756578291187  0.6966249704639367
  0.7183408277715699  0.4036113309712306  0.2010085665113408
  0.7155697811631043  0.5978166261032527  0.3043139126816925
  0.7045970050386003  0.8929663687517930  0.8000238265279691
  0.7710516037872068  0.1023342700678995  0.3121232476729077
  0.7749741740298148  0.4067855584200046  0.8054859189871806
  0.7753435758493055  0.5947538407799158  0.6948212842604420
  0.7844561776525936  0.8982613168736648  0.2014724600963334
  0.8029637841781394  0.2190360021542617  0.1034272066958195
  0.8008112445836844  0.2903399622064882  0.6070526650489896
  0.7961039432008405  0.7066368683234643  0.8931803747618403
  0.7971607977335964  0.7787883822521877  0.4078392083763234
  0.8449322666761105  0.0316698954912624  0.9488398381982392
  0.8506563318160048  0.4755532019437254  0.4439329807692616
  0.8531810756019951  0.5375621418877685  0.0613974773175983
  0.8446015291193945  0.9685301875402459  0.5542930224962674
  0.8942083596090740  0.2006556569181370  0.7891739305130443
  0.8970972392529220  0.3099140639268683  0.2858897075577289
  0.8977437348083370  0.7011022385995531  0.2296991704386500
  0.8900456490532420  0.7991072096945260  0.7087388996682478
  0.9364811768907231  0.1523639175734033  0.4840974780450651
  0.9405504495866097  0.3549813616915642  0.9677959481002816
  0.9471472956251858  0.6474166803202266  0.5360854163280493
  0.9467295507383469  0.8441614930545569  0.0354266022716061
  0.9594486514114493  0.0499593541137955  0.1457317971541485
  0.9686776920510027  0.4493913038028126  0.6537812514192964
  0.9674571430299537  0.5505375856058023  0.8493609191193983
  0.9581547275757600  0.9440965766429983  0.3578078002845970
  0.9991059224055405  0.9972222079906743  0.0003061249496099
  0.9966825364946246  0.0049740730672880  0.5024226183070795
  0.9990481541202101  0.5019977941398324  0.0003242622594115
  0.9997364907107666  0.4981678034076964  0.5010802046260068
  0.2458772756947880  0.2469596181006679  0.2501496437304951
  0.2520141629346071  0.2525994899433002  0.7534832440912353
  0.2450027433135631  0.7553734577408378  0.2515208777701261
  0.2485704100911050  0.7512533936933110  0.7497208046228252
  0.5013445229702356  0.9980512071243979  0.0021528577373502
  0.4983473428605762  0.0006251192885358  0.4995061650120221
  0.4970897818567153  0.5026493451418332  0.0048946873472744
  0.4920702542974809  0.4962556900305515  0.5003781253735227
  0.7520843365374574  0.2490950355050359  0.2543055732159658
  0.7473631254876594  0.2531178571785233  0.7544145841018377
  0.7481133392256751  0.7509738282285809  0.2542146172919146
  0.7435192445155323  0.7459357395258408  0.7471133165526851

  0.00000000E+00  0.00000000E+00  0.00000000E+00
  0.00000000E+00  0.00000000E+00  0.00000000E+00
  0.00000000E+00  0.00000000E+00  0.00000000E+00
  0.00000000E+00  0.00000000E+00  0.00000000E+00
  0.00000000E+00  0.00000000E+00  0.00000000E+00
  0.00000000E+00  0.00000000E+00  0.00000000E+00
  0.00000000E+00  0.00000000E+00  0.00000000E+00
  0.00000000E+00  0.00000000E+00  0.00000000E+00
  0.00000000E+00  0.00000000E+00  0.00000000E+00
  0.00000000E+00  0.00000000E+00  0.00000000E+00
  0.00000000E+00  0.00000000E+00  0.00000000E+00
  0.00000000E+00  0.00000000E+00  0.00000000E+00
  0.00000000E+00  0.00000000E+00  0.00000000E+00
  0.00000000E+00  0.00000000E+00  0.00000000E+00
  0.00000000E+00  0.00000000E+00  0.00000000E+00
  0.00000000E+00  0.00000000E+00  0.00000000E+00
  0.00000000E+00  0.00000000E+00  0.00000000E+00
  0.00000000E+00  0.00000000E+00  0.00000000E+00
  0.00000000E+00  0.00000000E+00  0.00000000E+00
  0.00000000E+00  0.00000000E+00  0.00000000E+00
  0.00000000E+00  0.00000000E+00  0.00000000E+00
  0.00000000E+00  0.00000000E+00  0.00000000E+00
  0.00000000E+00  0.00000000E+00  0.00000000E+00
  0.00000000E+00  0.00000000E+00  0.00000000E+00
  0.00000000E+00  0.00000000E+00  0.00000000E+00
  0.00000000E+00  0.00000000E+00  0.00000000E+00
  0.00000000E+00  0.00000000E+00  0.00000000E+00
  0.00000000E+00  0.00000000E+00  0.00000000E+00
  0.00000000E+00  0.00000000E+00  0.00000000E+00
  0.00000000E+00  0.00000000E+00  0.00000000E+00
  0.00000000E+00  0.00000000E+00  0.00000000E+00
  0.00000000E+00  0.00000000E+00  0.00000000E+00
  0.00000000E+00  0.00000000E+00  0.00000000E+00
  0.00000000E+00  0.00000000E+00  0.00000000E+00
  0.00000000E+00  0.00000000E+00  0.00000000E+00
  0.00000000E+00  0.00000000E+00  0.00000000E+00
  0.00000000E+00  0.00000000E+00  0.00000000E+00
  0.00000000E+00  0.00000000E+00  0.00000000E+00
  0.00000000E+00  0.00000000E+00  0.00000000E+00
  0.00000000E+00  0.00000000E+00  0.00000000E+00
  0.00000000E+00  0.00000000E+00  0.00000000E+00
  0.00000000E+00  0.00000000E+00  0.00000000E+00
  0.00000000E+00  0.00000000E+00  0.00000000E+00
  0.00000000E+00  0.00000000E+00  0.00000000E+00
  0.00000000E+00  0.00000000E+00  0.00000000E+00
  0.00000000E+00  0.00000000E+00  0.00000000E+00
  0.00000000E+00  0.00000000E+00  0.00000000E+00
  0.00000000E+00  0.00000000E+00  0.00000000E+00
  0.00000000E+00  0.00000000E+00  0.00000000E+00
  0.00000000E+00  0.00000000E+00  0.00000000E+00
  0.00000000E+00  0.00000000E+00  0.00000000E+00
  0.00000000E+00  0.00000000E+00  0.00000000E+00
  0.00000000E+00  0.00000000E+00  0.00000000E+00
  0.00000000E+00  0.00000000E+00  0.00000000E+00
  0.00000000E+00  0.00000000E+00  0.00000000E+00
  0.00000000E+00  0.00000000E+00  0.00000000E+00
  0.00000000E+00  0.00000000E+00  0.00000000E+00
  0.00000000E+00  0.00000000E+00  0.00000000E+00
  0.00000000E+00  0.00000000E+00  0.00000000E+00
  0.00000000E+00  0.00000000E+00  0.00000000E+00
  0.00000000E+00  0.00000000E+00  0.00000000E+00
  0.00000000E+00  0.00000000E+00  0.00000000E+00
  0.00000000E+00  0.00000000E+00  0.00000000E+00
  0.00000000E+00  0.00000000E+00  0.00000000E+00
  0.00000000E+00  0.00000000E+00  0.00000000E+00
  0.00000000E+00  0.00000000E+00  0.00000000E+00
  0.00000000E+00  0.00000000E+00  0.00000000E+00
  0.00000000E+00  0.00000000E+00  0.00000000E+00
  0.00000000E+00  0.00000000E+00  0.00000000E+00
  0.00000000E+00  0.00000000E+00  0.00000000E+00
  0.00000000E+00  0.00000000E+00  0.00000000E+00
  0.00000000E+00  0.00000000E+00  0.00000000E+00
  0.00000000E+00  0.00000000E+00  0.00000000E+00
  0.00000000E+00  0.00000000E+00  0.00000000E+00
  0.00000000E+00  0.00000000E+00  0.00000000E+00
  0.00000000E+00  0.00000000E+00  0.00000000E+00
  0.00000000E+00  0.00000000E+00  0.00000000E+00
  0.00000000E+00  0.00000000E+00  0.00000000E+00
  0.00000000E+00  0.00000000E+00  0.00000000E+00
  0.00000000E+00  0.00000000E+00  0.00000000E+00
  0.00000000E+00  0.00000000E+00  0.00000000E+00
  0.00000000E+00  0.00000000E+00  0.00000000E+00
  0.00000000E+00  0.00000000E+00  0.00000000E+00
  0.00000000E+00  0.00000000E+00  0.00000000E+00
  0.00000000E+00  0.00000000E+00  0.00000000E+00
  0.00000000E+00  0.00000000E+00  0.00000000E+00
  0.00000000E+00  0.00000000E+00  0.00000000E+00
  0.00000000E+00  0.00000000E+00  0.00000000E+00
  0.00000000E+00  0.00000000E+00  0.00000000E+00
  0.00000000E+00  0.00000000E+00  0.00000000E+00
  0.00000000E+00  0.00000000E+00  0.00000000E+00
  0.00000000E+00  0.00000000E+00  0.00000000E+00
  0.00000000E+00  0.00000000E+00  0.00000000E+00
  0.00000000E+00  0.00000000E+00  0.00000000E+00
  0.00000000E+00  0.00000000E+00  0.00000000E+00
  0.00000000E+00  0.00000000E+00  0.00000000E+00
  0.00000000E+00  0.00000000E+00  0.00000000E+00
  0.00000000E+00  0.00000000E+00  0.00000000E+00
  0.00000000E+00  0.00000000E+00  0.00000000E+00
  0.00000000E+00  0.00000000E+00  0.00000000E+00
  0.00000000E+00  0.00000000E+00  0.00000000E+00
  0.00000000E+00  0.00000000E+00  0.00000000E+00
  0.00000000E+00  0.00000000E+00  0.00000000E+00
  0.00000000E+00  0.00000000E+00  0.00000000E+00
  0.00000000E+00  0.00000000E+00  0.00000000E+00
  0.00000000E+00  0.00000000E+00  0.00000000E+00
  0.00000000E+00  0.00000000E+00  0.00000000E+00
  0.00000000E+00  0.00000000E+00  0.00000000E+00
  0.00000000E+00  0.00000000E+00  0.00000000E+00
  0.00000000E+00  0.00000000E+00  0.00000000E+00
  0.00000000E+00  0.00000000E+00  0.00000000E+00
  0.00000000E+00  0.00000000E+00  0.00000000E+00
  0.00000000E+00  0.00000000E+00  0.00000000E+00
  0.00000000E+00  0.00000000E+00  0.00000000E+00
  0.00000000E+00  0.00000000E+00  0.00000000E+00
  0.00000000E+00  0.00000000E+00  0.00000000E+00
  0.00000000E+00  0.00000000E+00  0.00000000E+00
  0.00000000E+00  0.00000000E+00  0.00000000E+00
  0.00000000E+00  0.00000000E+00  0.00000000E+00
  0.00000000E+00  0.00000000E+00  0.00000000E+00
  0.00000000E+00  0.00000000E+00  0.00000000E+00
  0.00000000E+00  0.00000000E+00  0.00000000E+00
  0.00000000E+00  0.00000000E+00  0.00000000E+00
  0.00000000E+00  0.00000000E+00  0.00000000E+00
  0.00000000E+00  0.00000000E+00  0.00000000E+00
  0.00000000E+00  0.00000000E+00  0.00000000E+00
  0.00000000E+00  0.00000000E+00  0.00000000E+00
  0.00000000E+00  0.00000000E+00  0.00000000E+00
  0.00000000E+00  0.00000000E+00  0.00000000E+00
  0.00000000E+00  0.00000000E+00  0.00000000E+00
  0.00000000E+00  0.00000000E+00  0.00000000E+00
  0.00000000E+00  0.00000000E+00  0.00000000E+00
  0.00000000E+00  0.00000000E+00  0.00000000E+00
  0.00000000E+00  0.00000000E+00  0.00000000E+00
  0.00000000E+00  0.00000000E+00  0.00000000E+00
  0.00000000E+00  0.00000000E+00  0.00000000E+00
  0.00000000E+00  0.00000000E+00  0.00000000E+00
  0.00000000E+00  0.00000000E+00  0.00000000E+00
  0.00000000E+00  0.00000000E+00  0.00000000E+00
  0.00000000E+00  0.00000000E+00  0.00000000E+00
  0.00000000E+00  0.00000000E+00  0.00000000E+00
  0.00000000E+00  0.00000000E+00  0.00000000E+00
  0.00000000E+00  0.00000000E+00  0.00000000E+00
  0.00000000E+00  0.00000000E+00  0.00000000E+00
  0.00000000E+00  0.00000000E+00  0.00000000E+00
  0.00000000E+00  0.00000000E+00  0.00000000E+00
  0.00000000E+00  0.00000000E+00  0.00000000E+00
  0.00000000E+00  0.00000000E+00  0.00000000E+00
  0.00000000E+00  0.00000000E+00  0.00000000E+00
  0.00000000E+00  0.00000000E+00  0.00000000E+00
  0.00000000E+00  0.00000000E+00  0.00000000E+00
  0.00000000E+00  0.00000000E+00  0.00000000E+00
  0.00000000E+00  0.00000000E+00  0.00000000E+00
  0.00000000E+00  0.00000000E+00  0.00000000E+00
  0.00000000E+00  0.00000000E+00  0.00000000E+00
  0.00000000E+00  0.00000000E+00  0.00000000E+00
  0.00000000E+00  0.00000000E+00  0.00000000E+00
  0.00000000E+00  0.00000000E+00  0.00000000E+00
  0.00000000E+00  0.00000000E+00  0.00000000E+00
  0.00000000E+00  0.00000000E+00  0.00000000E+00
  0.00000000E+00  0.00000000E+00  0.00000000E+00
  0.00000000E+00  0.00000000E+00  0.00000000E+00
  0.00000000E+00  0.00000000E+00  0.00000000E+00
  0.00000000E+00  0.00000000E+00  0.00000000E+00
  0.00000000E+00  0.00000000E+00  0.00000000E+00
  0.00000000E+00  0.00000000E+00  0.00000000E+00
  0.00000000E+00  0.00000000E+00  0.00000000E+00
  0.00000000E+00  0.00000000E+00  0.00000000E+00
  0.00000000E+00  0.00000000E+00  0.00000000E+00
  0.00000000E+00  0.00000000E+00  0.00000000E+00
  0.00000000E+00  0.00000000E+00  0.00000000E+00
  0.00000000E+00  0.00000000E+00  0.00000000E+00
  0.00000000E+00  0.00000000E+00  0.00000000E+00
  0.00000000E+00  0.00000000E+00  0.00000000E+00
  0.00000000E+00  0.00000000E+00  0.00000000E+00
  0.00000000E+00  0.00000000E+00  0.00000000E+00
  0.00000000E+00  0.00000000E+00  0.00000000E+00
  0.00000000E+00  0.00000000E+00  0.00000000E+00
  0.00000000E+00  0.00000000E+00  0.00000000E+00
  0.00000000E+00  0.00000000E+00  0.00000000E+00
  0.00000000E+00  0.00000000E+00  0.00000000E+00
  0.00000000E+00  0.00000000E+00  0.00000000E+00
  0.00000000E+00  0.00000000E+00  0.00000000E+00
  0.00000000E+00  0.00000000E+00  0.00000000E+00
  0.00000000E+00  0.00000000E+00  0.00000000E+00
  0.00000000E+00  0.00000000E+00  0.00000000E+00
  0.00000000E+00  0.00000000E+00  0.00000000E+00
  0.00000000E+00  0.00000000E+00  0.00000000E+00
  0.00000000E+00  0.00000000E+00  0.00000000E+00
  0.00000000E+00  0.00000000E+00  0.00000000E+00
  0.00000000E+00  0.00000000E+00  0.00000000E+00
  0.00000000E+00  0.00000000E+00  0.00000000E+00
  0.00000000E+00  0.00000000E+00  0.00000000E+00
