li7p3s11v2_repeated                     
   1.0000000000000000     
    12.9303569954357584   -0.0055171164728584   -0.0066446093855628
     3.4770799172556122   11.7271612541874983   -0.0563124812770564
    -5.2750953018632378   -1.1251746658341901   11.2568398352299681
   Li   P    S 
    28    12    44
Direct
  0.6547984517566761  0.0274942061061765  0.0645494776421458
  0.3371885010980407  0.4724095457109598  0.9289753571847754
  0.6432355771391158  0.2687673317475117  0.8616639549313732
  0.3626771150022066  0.2277422397080642  0.1364644713312515
  0.9314695646396487  0.3867280602078225  0.2580926757322430
  0.0583222316343566  0.1074057676534750  0.7445469575451753
  0.6667396973120390  0.3084978400284299  0.5125506501152159
  0.3636667153023794  0.1320042120160494  0.4984547833142869
  0.8417186995322012  0.4891733099225704  0.7655162784870910
  0.1622374039132239  0.0181053910438749  0.2147888693634386
  0.7023711011468521  0.2555742768106413  0.2768472483954056
  0.2931706404317254  0.2540379400327240  0.7229030495977824
  0.9969027156572707  0.1144661907357190  0.3807429835510732
  0.9764213077428181  0.2874604372172982  0.9777948952170163
  0.6547984349126779  0.5274942018092617  0.0645494334448387
  0.3371884842540425  0.9724095414140450  0.9289753129874683
  0.6432355602951247  0.7687673274505968  0.8616639107340589
  0.3626770981582155  0.7277422354111494  0.1364644271339372
  0.9314695477956505  0.8867280559109076  0.2580926315349359
  0.0583222147903655  0.6074057633565531  0.7445469133478682
  0.6667396804680479  0.8084978357315080  0.5125506059179017
  0.3636666984583812  0.6320042077191346  0.4984547391169798
  0.8417186826882030  0.9891733056256555  0.7655162342897768
  0.1622373870692329  0.5181053867469601  0.2147888251661243
  0.7023710843028610  0.7555742725137193  0.2768472041980914
  0.2931706235877272  0.7540379357358020  0.7229030054004681
  0.9969026988132725  0.6144661864387970  0.3807429393537589
  0.9764212908988270  0.7874604329203834  0.9777948510197021
  0.2203693324005442  0.4919773970079362  0.5411193232813858
  0.7823488877077196  0.0125332857889688  0.4632895046902306
  0.5192184768310995  0.4924620467127951  0.7225916467067464
  0.4841784338000537  0.0040489636697458  0.2789296608571874
  0.1556016724020708  0.3704459559875986  0.9382912693675749
  0.8437201043313607  0.1265337752064255  0.0641877423735764
  0.2203693155565531  0.9919773927110214  0.5411192790840715
  0.7823488708637214  0.5125332814920540  0.4632894604929163
  0.5192184599871013  0.9924620424158803  0.7225916025094321
  0.4841784169560626  0.5040489593728310  0.2789296166598731
  0.1556016555580797  0.8704459516906837  0.9382912251702606
  0.8437200874873625  0.6265337709095107  0.0641876981762692
  0.1454102526035967  0.4140073585077815  0.3776672997860047
  0.8406372825395323  0.1090716696372098  0.6188651187025442
  0.1923308125168077  0.4521948074498710  0.6718158216555210
  0.8094796912700133  0.0554546801816400  0.3300929446279639
  0.1784728880810462  0.1628292997790481  0.5325997484540750
  0.8284680189539131  0.3432859905425119  0.4694735050480006
  0.3984429809287349  0.4239987427465266  0.5606310521214510
  0.6032679392990516  0.0792156751530513  0.4355160466623502
  0.6684772680979378  0.3942800049725008  0.7100379167355655
  0.3369973005950868  0.1061949157821829  0.2932863213867734
  0.5075906655114437  0.4576746038595942  0.8667725802919293
  0.4927333048941023  0.0329127026428893  0.1305890765669346
  0.4894720260466414  0.1607977322786383  0.7086497680223687
  0.5140947841611379  0.3373342741190370  0.2994920483532866
  0.1642653180301750  0.3371240911768396  0.0958487201247067
  0.8419988098592981  0.1576065166466947  0.9099414946678621
  0.1487769519610964  0.0385749869731384  0.9440574837665636
  0.8493783208861174  0.4580760652246525  0.0606327970787319
  0.3080661329461023  0.2744128473932719  0.9238238357670951
  0.6898009973613597  0.2217230709164966  0.0743455077108592
  0.0120537284215558  0.3202934519007599  0.8050253530624403
  0.9834285592664784  0.1780670349507716  0.2035340026643269
  0.1454102357595985  0.9140073542108667  0.3776672555886904
  0.8406372656955483  0.6090716653402950  0.6188650745052300
  0.1923307956728095  0.9521948031529561  0.6718157774582068
  0.8094796744260151  0.5554546758847252  0.3300929004306496
  0.1784728712370551  0.6628292954821333  0.5325997042567607
  0.8284680021099149  0.8432859862455970  0.4694734608506934
  0.3984429640847367  0.9239987384496047  0.5606310079241368
  0.6032679224550535  0.5792156708561293  0.4355160024650360
  0.6684772512539396  0.8942800006755860  0.7100378725382512
  0.3369972837510886  0.6061949114852681  0.2932862771894662
  0.5075906486674455  0.9576745995626723  0.8667725360946150
  0.4927332880501041  0.5329126983459673  0.1305890323696204
  0.4894720092026432  0.6607977279817234  0.7086497238250544
  0.5140947673171397  0.8373342698221151  0.2994920041559723
  0.1642653011861768  0.8371240868799248  0.0958486759273924
  0.8419987930152999  0.6576065123497798  0.9099414504705479
  0.1487769351171053  0.5385749826762236  0.9440574395692565
  0.8493783040421192  0.9580760609277377  0.0606327528814177
  0.3080661161021112  0.7744128430963571  0.9238237915697809
  0.6898009805173615  0.7217230666195817  0.0743454635135379
  0.0120537115775647  0.8202934476038450  0.8050253088651260
  0.9834285424224873  0.6780670306538568  0.2035339584670126

  0.00000000E+00  0.00000000E+00  0.00000000E+00
  0.00000000E+00  0.00000000E+00  0.00000000E+00
  0.00000000E+00  0.00000000E+00  0.00000000E+00
  0.00000000E+00  0.00000000E+00  0.00000000E+00
  0.00000000E+00  0.00000000E+00  0.00000000E+00
  0.00000000E+00  0.00000000E+00  0.00000000E+00
  0.00000000E+00  0.00000000E+00  0.00000000E+00
  0.00000000E+00  0.00000000E+00  0.00000000E+00
  0.00000000E+00  0.00000000E+00  0.00000000E+00
  0.00000000E+00  0.00000000E+00  0.00000000E+00
  0.00000000E+00  0.00000000E+00  0.00000000E+00
  0.00000000E+00  0.00000000E+00  0.00000000E+00
  0.00000000E+00  0.00000000E+00  0.00000000E+00
  0.00000000E+00  0.00000000E+00  0.00000000E+00
  0.00000000E+00  0.00000000E+00  0.00000000E+00
  0.00000000E+00  0.00000000E+00  0.00000000E+00
  0.00000000E+00  0.00000000E+00  0.00000000E+00
  0.00000000E+00  0.00000000E+00  0.00000000E+00
  0.00000000E+00  0.00000000E+00  0.00000000E+00
  0.00000000E+00  0.00000000E+00  0.00000000E+00
  0.00000000E+00  0.00000000E+00  0.00000000E+00
  0.00000000E+00  0.00000000E+00  0.00000000E+00
  0.00000000E+00  0.00000000E+00  0.00000000E+00
  0.00000000E+00  0.00000000E+00  0.00000000E+00
  0.00000000E+00  0.00000000E+00  0.00000000E+00
  0.00000000E+00  0.00000000E+00  0.00000000E+00
  0.00000000E+00  0.00000000E+00  0.00000000E+00
  0.00000000E+00  0.00000000E+00  0.00000000E+00
  0.00000000E+00  0.00000000E+00  0.00000000E+00
  0.00000000E+00  0.00000000E+00  0.00000000E+00
  0.00000000E+00  0.00000000E+00  0.00000000E+00
  0.00000000E+00  0.00000000E+00  0.00000000E+00
  0.00000000E+00  0.00000000E+00  0.00000000E+00
  0.00000000E+00  0.00000000E+00  0.00000000E+00
  0.00000000E+00  0.00000000E+00  0.00000000E+00
  0.00000000E+00  0.00000000E+00  0.00000000E+00
  0.00000000E+00  0.00000000E+00  0.00000000E+00
  0.00000000E+00  0.00000000E+00  0.00000000E+00
  0.00000000E+00  0.00000000E+00  0.00000000E+00
  0.00000000E+00  0.00000000E+00  0.00000000E+00
  0.00000000E+00  0.00000000E+00  0.00000000E+00
  0.00000000E+00  0.00000000E+00  0.00000000E+00
  0.00000000E+00  0.00000000E+00  0.00000000E+00
  0.00000000E+00  0.00000000E+00  0.00000000E+00
  0.00000000E+00  0.00000000E+00  0.00000000E+00
  0.00000000E+00  0.00000000E+00  0.00000000E+00
  0.00000000E+00  0.00000000E+00  0.00000000E+00
  0.00000000E+00  0.00000000E+00  0.00000000E+00
  0.00000000E+00  0.00000000E+00  0.00000000E+00
  0.00000000E+00  0.00000000E+00  0.00000000E+00
  0.00000000E+00  0.00000000E+00  0.00000000E+00
  0.00000000E+00  0.00000000E+00  0.00000000E+00
  0.00000000E+00  0.00000000E+00  0.00000000E+00
  0.00000000E+00  0.00000000E+00  0.00000000E+00
  0.00000000E+00  0.00000000E+00  0.00000000E+00
  0.00000000E+00  0.00000000E+00  0.00000000E+00
  0.00000000E+00  0.00000000E+00  0.00000000E+00
  0.00000000E+00  0.00000000E+00  0.00000000E+00
  0.00000000E+00  0.00000000E+00  0.00000000E+00
  0.00000000E+00  0.00000000E+00  0.00000000E+00
  0.00000000E+00  0.00000000E+00  0.00000000E+00
  0.00000000E+00  0.00000000E+00  0.00000000E+00
  0.00000000E+00  0.00000000E+00  0.00000000E+00
  0.00000000E+00  0.00000000E+00  0.00000000E+00
  0.00000000E+00  0.00000000E+00  0.00000000E+00
  0.00000000E+00  0.00000000E+00  0.00000000E+00
  0.00000000E+00  0.00000000E+00  0.00000000E+00
  0.00000000E+00  0.00000000E+00  0.00000000E+00
  0.00000000E+00  0.00000000E+00  0.00000000E+00
  0.00000000E+00  0.00000000E+00  0.00000000E+00
  0.00000000E+00  0.00000000E+00  0.00000000E+00
  0.00000000E+00  0.00000000E+00  0.00000000E+00
  0.00000000E+00  0.00000000E+00  0.00000000E+00
  0.00000000E+00  0.00000000E+00  0.00000000E+00
  0.00000000E+00  0.00000000E+00  0.00000000E+00
  0.00000000E+00  0.00000000E+00  0.00000000E+00
  0.00000000E+00  0.00000000E+00  0.00000000E+00
  0.00000000E+00  0.00000000E+00  0.00000000E+00
  0.00000000E+00  0.00000000E+00  0.00000000E+00
  0.00000000E+00  0.00000000E+00  0.00000000E+00
  0.00000000E+00  0.00000000E+00  0.00000000E+00
  0.00000000E+00  0.00000000E+00  0.00000000E+00
  0.00000000E+00  0.00000000E+00  0.00000000E+00
  0.00000000E+00  0.00000000E+00  0.00000000E+00
