ISTART=1
ENCUT=520
EDIFF=1e-6
EDIFFG=-1e-2
IBRION=2
NSW=0
ISIF=0
PREC=Accurate
LREAL=AUTO
NPAR=64
NCORE=16
NELM=300
LPLANE=.TRUE.
NEDOS=4000
LORBIT=11
LHFCALC=.TRUE.
HFSCREEN=0.2
PRECFOCK=normal
LVHAR=.TRUE.
LVTOT=.TRUE.
ISMEAR=-5
